 DBCSR| CPU Multiplication driver                                           BLAS
 DBCSR| Multrec recursion limit                                              512
 DBCSR| Multiplication stack size                                           1000
 DBCSR| Maximum elements for images                                    UNLIMITED
 DBCSR| Multiplicative factor virtual images                                   1
 DBCSR| Use multiplication densification                                       T
 DBCSR| Multiplication size stacks                                             3
 DBCSR| Use memory pool for CPU allocation                                     F
 DBCSR| Number of 3D layers                                               SINGLE
 DBCSR| Use MPI memory allocation                                              F
 DBCSR| Use RMA algorithm                                                      F
 DBCSR| Use Communication thread                                               T
 DBCSR| Communication thread load                                             83
 DBCSR| MPI: My node id                                                        0
 DBCSR| MPI: Number of nodes                                                   6
 DBCSR| OMP: Current number of threads                                         2
 DBCSR| OMP: Max number of threads                                             2
 DBCSR| Split modifier for TAS multiplication algorithm                  1.0E+00


  **** **** ******  **  PROGRAM STARTED AT               2026-06-03 22:05:48.122
 ***** ** ***  *** **   PROGRAM STARTED ON                       WIN-J3K434GUOOG
 **    ****   ******    PROGRAM STARTED BY                                   cpl
 ***** **    ** ** **   PROGRAM PROCESS ID                                   412
  **** **  *******  **  PROGRAM STARTED IN /mnt/d/CPL_CAL/cp2k_a3eucl6_workflow/
                                           runs/QUVXEO_2401649_R_H_only_preopt

 CP2K| version string:                                          CP2K version 9.1
 CP2K| source code revision number:                                  git:d8d7100
 CP2K| cp2kflags: omp libint fftw3 libxc elpa parallel mpi3 scalapack spglib    
 CP2K| is freely available from                            https://www.cp2k.org/
 CP2K| Program compiled at                          Sun Jan  9 17:14:22 UTC 2022
 CP2K| Program compiled on                                       lcy02-amd64-025
 CP2K| Program compiled for                                Linux-x86_64-gfortran
 CP2K| Data directory path                                       /usr/share/cp2k
 CP2K| Input file name                                               cellopt.inp

 GLOBAL| Force Environment number                                              1
 GLOBAL| Basis set file name                                       BASIS_A3EUCL6
 GLOBAL| Potential file name                                   POTENTIAL_A3EUCL6
 GLOBAL| MM Potential file name                                     MM_POTENTIAL
 GLOBAL| Coordinate file name                                      __STD_INPUT__
 GLOBAL| Method name                                                        CP2K
 GLOBAL| Project name                                             QUVXEO_R_HONLY
 GLOBAL| Run type                                                        GEO_OPT
 GLOBAL| FFT library                                                       FFTW3
 GLOBAL| Diagonalization library                                            ELPA
 GLOBAL| Minimum number of eigenvectors for ELPA usage                        16
 GLOBAL| Orthonormality check for eigenvectors                          DISABLED
 GLOBAL| Matrix multiplication library                                 ScaLAPACK
 GLOBAL| All-to-all communication in single precision                          F
 GLOBAL| FFTs using library dependent lengths                                  F
 GLOBAL| Grid backend                                                       AUTO
 GLOBAL| Global print level                                                  LOW
 GLOBAL| MPI I/O enabled                                                       T
 GLOBAL| Total number of message passing processes                             6
 GLOBAL| Number of threads for this process                                    2
 GLOBAL| This output is from process                                           0
 GLOBAL| Stack size for threads created by OpenMP (OMP_STACKSIZE)        default
 GLOBAL| CPU model name                             Intel(R) Core(TM) i5-14600KF

 MEMORY| system memory details [Kb]
 MEMORY|                        rank 0           min           max       average
 MEMORY| MemTotal             16278580      16278580      16278580      16278580
 MEMORY| MemFree              14767864      14767864      14767864      14767864
 MEMORY| Buffers                 47368         47368         47368         47368
 MEMORY| Cached                 480812        480812        480812        480812
 MEMORY| Slab                   105764        105764        105764        105764
 MEMORY| SReclaimable            27252         27252         27252         27252
 MEMORY| MemLikelyFree        15323296      15323296      15323296      15323296


 GENERATE|  Preliminary Number of Bonds generated:                             0
 GENERATE|  Achieved consistency in connectivity generation.

 *******************************************************************************
 *******************************************************************************
 **                                                                           **
 **     #####                         ##              ##                      **
 **    ##   ##            ##          ##              ##                      **
 **   ##     ##                       ##            ######                    **
 **   ##     ##  ##   ##  ##   #####  ##  ##   ####   ##    #####    #####    **
 **   ##     ##  ##   ##  ##  ##      ## ##   ##      ##   ##   ##  ##   ##   **
 **   ##  ## ##  ##   ##  ##  ##      ####     ###    ##   ######   ######    **
 **    ##  ###   ##   ##  ##  ##      ## ##      ##   ##   ##       ##        **
 **     #######   #####   ##   #####  ##  ##  ####    ##    #####   ##        **
 **           ##                                                    ##        **
 **                                                                           **
 **                                                ... make the atoms dance   **
 **                                                                           **
 **            Copyright (C) by CP2K developers group (2000-2021)             **
 **                      J. Chem. Phys. 152, 194103 (2020)                    **
 **                                                                           **
 *******************************************************************************


 TOTAL NUMBERS AND MAXIMUM NUMBERS

  Total number of            - Atomic kinds:                                   6
                             - Atoms:                                        280
                             - Shell sets:                                   296
                             - Shells:                                      1160
                             - Primitive Cartesian functions:               1388
                             - Cartesian basis functions:                   2920
                             - Spherical basis functions:                   2720

  Maximum angular momentum of- Orbital basis functions:                        3
                             - Local part of the GTH pseudopotential:          2
                             - Non-local part of the GTH pseudopotential:      4


 SCF PARAMETERS         Density guess:                                    ATOMIC
                        --------------------------------------------------------
                        max_scf:                                             200
                        max_scf_history:                                       0
                        max_diis:                                              4
                        --------------------------------------------------------
                        eps_scf:                                        1.00E-05
                        eps_scf_history:                                0.00E+00
                        eps_diis:                                       1.00E-01
                        eps_eigval:                                     1.00E-05
                        --------------------------------------------------------
                        level_shift [a.u.]:                                 0.00
                        --------------------------------------------------------
                        Outer loop SCF in use 
                        No variables optimised in outer loop
                        eps_scf                                         1.00E-05
                        max_scf                                                8
                        No outer loop optimization
                        step_size                                       5.00E-01

 BFGS| Use rational function optimization for step estimation:                NO
 BFGS| Use model Hessian for initial guess:                                  YES
 BFGS| Restart Hessian:                                                       NO
 BFGS| Trust radius:                                                       0.472

 *******************************************************************************
 ***                     STARTING GEOMETRY OPTIMIZATION                      ***
 ***                                   BFGS                                  ***
 *******************************************************************************

 Number of electrons:                                                        896
 Number of occupied orbitals:                                                448
 Number of molecular orbitals:                                               448

 Number of orbital functions:                                               2720
 Number of independent orbital functions:                                   2720

 Extrapolation method: initial_guess


 SCF WAVEFUNCTION OPTIMIZATION

  ----------------------------------- OT ---------------------------------------
  Minimizer      : DIIS                : direct inversion
                                         in the iterative subspace
                                         using   7 DIIS vectors
                                         safer DIIS on
  Preconditioner : FULL_SINGLE_INVERSE : inversion of 
                                         H + eS - 2*(Sc)(c^T*H*c+const)(Sc)^T
  Precond_solver : DEFAULT
  stepsize       :    0.08000000                  energy_gap     :    0.08000000
  eps_taylor     :   0.10000E-15                  max_taylor     :             4
  ----------------------------------- OT ---------------------------------------

  Step     Update method      Time    Convergence         Total energy    Change
  ------------------------------------------------------------------------------
     1 OT DIIS     0.80E-01    4.6     0.01817521     -1536.1378143137 -1.54E+03
     2 OT DIIS     0.80E-01    3.4     0.01293132     -1563.5925912470 -2.75E+01
     3 OT DIIS     0.80E-01    3.2     0.00788441     -1586.8231757630 -2.32E+01
     4 OT DIIS     0.80E-01    3.4     0.00690888     -1590.7801520588 -3.96E+00
     5 OT DIIS     0.80E-01    3.2     0.00516556     -1605.7445177077 -1.50E+01
     6 OT DIIS     0.80E-01    3.2     0.00389835     -1612.3374167934 -6.59E+00
     7 OT DIIS     0.80E-01    3.2     0.00320912     -1616.9277076468 -4.59E+00
     8 OT DIIS     0.80E-01    3.3     0.00237346     -1622.4919062258 -5.56E+00
     9 OT DIIS     0.80E-01    3.2     0.00191934     -1625.2466052049 -2.75E+00
    10 OT DIIS     0.80E-01    3.1     0.00154305     -1627.2810564444 -2.03E+00
    11 OT DIIS     0.80E-01    3.2     0.00148485     -1627.7781589496 -4.97E-01
    12 OT DIIS     0.80E-01    3.4     0.00126139     -1628.9668166094 -1.19E+00
    13 OT DIIS     0.80E-01    3.3     0.00105574     -1630.1670564934 -1.20E+00
    14 OT DIIS     0.80E-01    3.3     0.00093095     -1630.6174166198 -4.50E-01
    15 OT DIIS     0.80E-01    3.1     0.00075015     -1631.4227879539 -8.05E-01
    16 OT DIIS     0.80E-01    3.2     0.00067451     -1631.8369810814 -4.14E-01
    17 OT DIIS     0.80E-01    3.3     0.00064510     -1632.2126331790 -3.76E-01
    18 OT DIIS     0.80E-01    3.2     0.00058209     -1632.3638628565 -1.51E-01
    19 OT DIIS     0.80E-01    3.3     0.00054601     -1632.4702203545 -1.06E-01
    20 OT DIIS     0.80E-01    3.1     0.00046108     -1632.8005504126 -3.30E-01
    21 OT DIIS     0.80E-01    3.1     0.00040466     -1633.0553650004 -2.55E-01
    22 OT DIIS     0.80E-01    3.3     0.00038476     -1633.1613158101 -1.06E-01
    23 OT DIIS     0.80E-01    3.2     0.00034517     -1633.3487790849 -1.87E-01
    24 OT DIIS     0.80E-01    3.1     0.00034170     -1633.4040908286 -5.53E-02
    25 OT DIIS     0.80E-01    3.2     0.00032979     -1633.4327708077 -2.87E-02
    26 OT DIIS     0.80E-01    3.1     0.00031536     -1633.5029279156 -7.02E-02
    27 OT DIIS     0.80E-01    3.3     0.00028884     -1633.6346301023 -1.32E-01
    28 OT DIIS     0.80E-01    3.3     0.00027422     -1633.7214248598 -8.68E-02
    29 OT DIIS     0.80E-01    3.3     0.00026680     -1633.7654087844 -4.40E-02
    30 OT DIIS     0.80E-01    3.1     0.00025306     -1633.8879002451 -1.22E-01
    31 OT DIIS     0.80E-01    3.2     0.00024681     -1633.9029168275 -1.50E-02
    32 OT DIIS     0.80E-01    3.2     0.00024350     -1633.9237149580 -2.08E-02
    33 OT DIIS     0.80E-01    3.5     0.00022635     -1634.0280309917 -1.04E-01
    34 OT DIIS     0.80E-01    3.5     0.00021464     -1634.0973708658 -6.93E-02
    35 OT DIIS     0.80E-01    3.2     0.00020448     -1634.1472483610 -4.99E-02
    36 OT SD       0.80E-01    3.1     0.00020171     -1634.1919116786 -4.47E-02
    37 OT DIIS     0.80E-01    3.1     0.00019944     -1634.1958541529 -3.94E-03
    38 OT DIIS     0.80E-01    3.2     0.00018468     -1634.2723492850 -7.65E-02
    39 OT DIIS     0.80E-01    3.2     0.00017469     -1634.3156245193 -4.33E-02
    40 OT DIIS     0.80E-01    3.2     0.00016310     -1634.3629442059 -4.73E-02
    41 OT DIIS     0.80E-01    3.1     0.00016036     -1634.3765292330 -1.36E-02
    42 OT DIIS     0.80E-01    3.2     0.00014588     -1634.4463938905 -6.99E-02
    43 OT DIIS     0.80E-01    3.2     0.00014275     -1634.4583763893 -1.20E-02
    44 OT DIIS     0.80E-01    3.2     0.00013364     -1634.4998793011 -4.15E-02
    45 OT DIIS     0.80E-01    3.2     0.00013240     -1634.5090796285 -9.20E-03
    46 OT DIIS     0.80E-01    3.3     0.00012920     -1634.5199220067 -1.08E-02
    47 OT DIIS     0.80E-01    3.1     0.00012397     -1634.5411530863 -2.12E-02
    48 OT DIIS     0.80E-01    3.1     0.00011985     -1634.5587864480 -1.76E-02
    49 OT DIIS     0.80E-01    3.1     0.00011672     -1634.5734014197 -1.46E-02
    50 OT SD       0.80E-01    3.2     0.00011121     -1634.6047681869 -3.14E-02
    51 OT DIIS     0.80E-01    3.3     0.00011038     -1634.6059690461 -1.20E-03
    52 OT DIIS     0.80E-01    3.2     0.00010721     -1634.6267045422 -2.07E-02
    53 OT DIIS     0.80E-01    3.0     0.00010538     -1634.6322102402 -5.51E-03
    54 OT SD       0.80E-01    3.1     0.00010647     -1634.6478166909 -1.56E-02
    55 OT DIIS     0.80E-01    3.0     0.00010574     -1634.6489175447 -1.10E-03
    56 OT DIIS     0.80E-01    3.1     0.00010199     -1634.6605075774 -1.16E-02
    57 OT DIIS     0.80E-01    3.4     0.00010167     -1634.6645547970 -4.05E-03
    58 OT DIIS     0.80E-01    3.1     0.00010129     -1634.6688009319 -4.25E-03
    59 OT DIIS     0.80E-01    3.2     0.00009833     -1634.6996071522 -3.08E-02
    60 OT DIIS     0.80E-01    3.2     0.00009769     -1634.7045070103 -4.90E-03
    61 OT SD       0.80E-01    3.1     0.00009695     -1634.7317376138 -2.72E-02
    62 OT DIIS     0.80E-01    3.1     0.00009655     -1634.7326518197 -9.14E-04
    63 OT SD       0.80E-01    3.4     0.00009549     -1634.7389314170 -6.28E-03
    64 OT DIIS     0.80E-01    3.2     0.00009529     -1634.7398192779 -8.88E-04
    65 OT DIIS     0.80E-01    3.2     0.00009459     -1634.7590315773 -1.92E-02
    66 OT DIIS     0.80E-01    3.3     0.00009251     -1634.7629542957 -3.92E-03
    67 OT DIIS     0.80E-01    3.3     0.00009173     -1634.7679945106 -5.04E-03
    68 OT DIIS     0.80E-01    3.2     0.00008860     -1634.7880684154 -2.01E-02
    69 OT DIIS     0.80E-01    3.2     0.00008823     -1634.7921610387 -4.09E-03
    70 OT DIIS     0.80E-01    3.3     0.00008769     -1634.7944248633 -2.26E-03
    71 OT SD       0.80E-01    3.2     0.00008196     -1634.8233072057 -2.89E-02
    72 OT DIIS     0.80E-01    3.3     0.00008119     -1634.8239587275 -6.52E-04
    73 OT DIIS     0.80E-01    3.0     0.00007936     -1634.8439103329 -2.00E-02
    74 OT SD       0.80E-01    3.3     0.00006863     -1634.8601101838 -1.62E-02
    75 OT DIIS     0.80E-01    3.2     0.00006797     -1634.8605670104 -4.57E-04
    76 OT SD       0.80E-01    3.4     0.00006729     -1634.8705429866 -9.98E-03
    77 OT DIIS     0.80E-01    3.2     0.00006609     -1634.8709801630 -4.37E-04
    78 OT SD       0.80E-01    3.2     0.00005307     -1634.8943316396 -2.34E-02
    79 OT DIIS     0.80E-01    3.4     0.00005204     -1634.8946034168 -2.72E-04
    80 OT DIIS     0.80E-01    3.3     0.00004587     -1634.9016244100 -7.02E-03
    81 OT DIIS     0.80E-01    3.2     0.00004464     -1634.9033770968 -1.75E-03
    82 OT DIIS     0.80E-01    3.6     0.00004142     -1634.9076406990 -4.26E-03
    83 OT DIIS     0.80E-01    3.2     0.00004010     -1634.9085656510 -9.25E-04
    84 OT DIIS     0.80E-01    3.2     0.00003938     -1634.9093340327 -7.68E-04
    85 OT DIIS     0.80E-01    3.4     0.00003598     -1634.9137167669 -4.38E-03
    86 OT DIIS     0.80E-01    3.3     0.00003490     -1634.9145531209 -8.36E-04
    87 OT DIIS     0.80E-01    3.2     0.00003349     -1634.9157886926 -1.24E-03
    88 OT DIIS     0.80E-01    3.2     0.00003243     -1634.9166285588 -8.40E-04
    89 OT DIIS     0.80E-01    3.2     0.00003017     -1634.9207219226 -4.09E-03
    90 OT DIIS     0.80E-01    3.3     0.00002886     -1634.9218147527 -1.09E-03
    91 OT DIIS     0.80E-01    3.3     0.00002629     -1634.9240706226 -2.26E-03
    92 OT DIIS     0.80E-01    3.2     0.00002666     -1634.9240793215 -8.70E-06
    93 OT DIIS     0.80E-01    3.2     0.00002506     -1634.9256477123 -1.57E-03
    94 OT DIIS     0.80E-01    3.3     0.00002476     -1634.9258894467 -2.42E-04
    95 OT DIIS     0.80E-01    3.2     0.00002356     -1634.9275104648 -1.62E-03
    96 OT SD       0.80E-01    3.6     0.00002325     -1634.9278842927 -3.74E-04
    97 OT DIIS     0.80E-01    3.3     0.00002312     -1634.9279368531 -5.26E-05
    98 OT DIIS     0.80E-01    3.2     0.00002107     -1634.9311773047 -3.24E-03
    99 OT DIIS     0.80E-01    3.2     0.00002085     -1634.9314009226 -2.24E-04
   100 OT DIIS     0.80E-01    3.2     0.00002035     -1634.9323446984 -9.44E-04
   101 OT DIIS     0.80E-01    3.1     0.00002002     -1634.9326399240 -2.95E-04
   102 OT DIIS     0.80E-01    3.4     0.00001965     -1634.9330491646 -4.09E-04
   103 OT DIIS     0.80E-01    3.2     0.00001941     -1634.9334100487 -3.61E-04
   104 OT DIIS     0.80E-01    3.2     0.00001856     -1634.9357252330 -2.32E-03
   105 OT DIIS     0.80E-01    3.2     0.00001823     -1634.9359718165 -2.47E-04
   106 OT DIIS     0.80E-01    3.2     0.00001772     -1634.9367134233 -7.42E-04
   107 OT DIIS     0.80E-01    3.1     0.00001712     -1634.9381372844 -1.42E-03
   108 OT DIIS     0.80E-01    3.4     0.00001702     -1634.9383815362 -2.44E-04
   109 OT DIIS     0.80E-01    3.3     0.00001661     -1634.9392140561 -8.33E-04
   110 OT DIIS     0.80E-01    3.3     0.00001650     -1634.9395642723 -3.50E-04
   111 OT DIIS     0.80E-01    3.2     0.00001642     -1634.9398798414 -3.16E-04
   112 OT DIIS     0.80E-01    3.2     0.00001559     -1634.9417551201 -1.88E-03
   113 OT DIIS     0.80E-01    3.2     0.00001539     -1634.9421383165 -3.83E-04
   114 OT DIIS     0.80E-01    3.3     0.00001453     -1634.9434879442 -1.35E-03
   115 OT DIIS     0.80E-01    3.3     0.00001427     -1634.9442084655 -7.21E-04
   116 OT DIIS     0.80E-01    3.4     0.00001404     -1634.9446278393 -4.19E-04
   117 OT DIIS     0.80E-01    3.3     0.00001385     -1634.9449147931 -2.87E-04
   118 OT DIIS     0.80E-01    3.1     0.00001339     -1634.9462061283 -1.29E-03
   119 OT DIIS     0.80E-01    3.1     0.00001327     -1634.9462666785 -6.06E-05
   120 OT DIIS     0.80E-01    3.1     0.00001288     -1634.9471397171 -8.73E-04
   121 OT DIIS     0.80E-01    3.2     0.00001281     -1634.9472290029 -8.93E-05
   122 OT DIIS     0.80E-01    3.2     0.00001274     -1634.9473688296 -1.40E-04
   123 OT DIIS     0.80E-01    3.1     0.00001228     -1634.9483531206 -9.84E-04
   124 OT DIIS     0.80E-01    3.4     0.00001212     -1634.9487264519 -3.73E-04
   125 OT DIIS     0.80E-01    3.3     0.00001200     -1634.9490934634 -3.67E-04
   126 OT DIIS     0.80E-01    3.2     0.00001196     -1634.9491483893 -5.49E-05
   127 OT SD       0.80E-01    3.1     0.00001174     -1634.9494543377 -3.06E-04
   128 OT DIIS     0.80E-01    3.3     0.00001171     -1634.9494677624 -1.34E-05
   129 OT DIIS     0.80E-01    3.1     0.00001148     -1634.9499529905 -4.85E-04
   130 OT DIIS     0.80E-01    3.3     0.00001143     -1634.9502316443 -2.79E-04
   131 OT DIIS     0.80E-01    3.2     0.00001133     -1634.9507298162 -4.98E-04
   132 OT DIIS     0.80E-01    3.2     0.00001129     -1634.9507836686 -5.39E-05
   133 OT DIIS     0.80E-01    3.1     0.00001122     -1634.9509111219 -1.27E-04
   134 OT DIIS     0.80E-01    3.0     0.00001101     -1634.9517725981 -8.61E-04
   135 OT DIIS     0.80E-01    3.1     0.00001097     -1634.9519766639 -2.04E-04
   136 OT DIIS     0.80E-01    3.0     0.00001080     -1634.9527260741 -7.49E-04
   137 OT DIIS     0.80E-01    3.1     0.00001073     -1634.9531503355 -4.24E-04
   138 OT DIIS     0.80E-01    3.1     0.00001067     -1634.9532536228 -1.03E-04
   139 OT DIIS     0.80E-01    3.0     0.00001055     -1634.9539738731 -7.20E-04
   140 OT DIIS     0.80E-01    3.0     0.00001035     -1634.9545130549 -5.39E-04
   141 OT SD       0.80E-01    3.1     0.00001026     -1634.9547689154 -2.56E-04
   142 OT DIIS     0.80E-01    3.1     0.00001023     -1634.9547791658 -1.03E-05
   143 OT SD       0.80E-01    3.1     0.00000975     -1634.9564742363 -1.70E-03

  *** SCF run converged in   143 steps ***


  Electronic density on regular grids:       -895.9999969087        0.0000030913
  Core density on regular grids:              895.9999999260       -0.0000000740
  Total charge density on r-space grids:        0.0000030173
  Total charge density g-space grids:           0.0000030173

  Overlap energy of the core charge distribution:               0.00085868255933
  Self energy of the core charge distribution:              -3531.67332257831958
  Core Hamiltonian energy:                                   1040.41342536306820
  Hartree energy:                                            1253.38286965101679
  Exchange-correlation energy:                               -396.25142609484845
  Dispersion energy:                                           -0.82887925980407

  Total energy:                                             -1634.95647423632795

  outer SCF iter =    1 RMS gradient =   0.98E-05 energy =      -1634.9564742363
  outer SCF loop converged in   1 iterations or  143 steps


 ENERGY| Total FORCE_EVAL ( QS ) energy [a.u.]:            -1634.956483487988635

 --------  Informations at step =     0 ------------
  Optimization Method        =                 BFGS
  Total Energy               =     -1634.9564834880
  Used time                  =              469.321
 ---------------------------------------------------

 --------------------------
 OPTIMIZATION STEP:      1
 --------------------------

 Number of electrons:                                                        896
 Number of occupied orbitals:                                                448
 Number of molecular orbitals:                                               448

 Number of orbital functions:                                               2720
 Number of independent orbital functions:                                   2720

 Extrapolation method: ASPC


 SCF WAVEFUNCTION OPTIMIZATION

  ----------------------------------- OT ---------------------------------------
  Minimizer      : DIIS                : direct inversion
                                         in the iterative subspace
                                         using   7 DIIS vectors
                                         safer DIIS on
  Preconditioner : FULL_SINGLE_INVERSE : inversion of 
                                         H + eS - 2*(Sc)(c^T*H*c+const)(Sc)^T
  Precond_solver : DEFAULT
  stepsize       :    0.08000000                  energy_gap     :    0.08000000
  eps_taylor     :   0.10000E-15                  max_taylor     :             4
  ----------------------------------- OT ---------------------------------------

  Step     Update method      Time    Convergence         Total energy    Change
  ------------------------------------------------------------------------------
     1 OT DIIS     0.80E-01    4.3     0.00152386     -1636.3744560118 -1.64E+03
     2 OT DIIS     0.80E-01    3.0     0.00080234     -1636.5348578606 -1.60E-01
     3 OT DIIS     0.80E-01    3.1     0.00042968     -1636.5929685083 -5.81E-02
     4 OT DIIS     0.80E-01    3.1     0.00036380     -1636.6102438072 -1.73E-02
     5 OT DIIS     0.80E-01    3.0     0.00018951     -1636.6132556573 -3.01E-03
     6 OT DIIS     0.80E-01    3.1     0.00010099     -1636.6151231393 -1.87E-03
     7 OT DIIS     0.80E-01    3.1     0.00008256     -1636.6156466322 -5.23E-04
     8 OT DIIS     0.80E-01    3.0     0.00006154     -1636.6161238360 -4.77E-04
     9 OT DIIS     0.80E-01    3.0     0.00005543     -1636.6163545375 -2.31E-04
    10 OT DIIS     0.80E-01    3.1     0.00005283     -1636.6167053953 -3.51E-04
    11 OT DIIS     0.80E-01    3.1     0.00005168     -1636.6171099247 -4.05E-04
    12 OT DIIS     0.80E-01    3.1     0.00004882     -1636.6178629523 -7.53E-04
    13 OT DIIS     0.80E-01    3.1     0.00004717     -1636.6188498675 -9.87E-04
    14 OT DIIS     0.80E-01    3.1     0.00004465     -1636.6197246771 -8.75E-04
    15 OT DIIS     0.80E-01    3.1     0.00004137     -1636.6206261075 -9.01E-04
    16 OT DIIS     0.80E-01    3.1     0.00003832     -1636.6210982672 -4.72E-04
    17 OT DIIS     0.80E-01    3.1     0.00003623     -1636.6214961463 -3.98E-04
    18 OT DIIS     0.80E-01    3.1     0.00003359     -1636.6218566446 -3.60E-04
    19 OT DIIS     0.80E-01    3.2     0.00003245     -1636.6222323653 -3.76E-04
    20 OT DIIS     0.80E-01    3.2     0.00003071     -1636.6226193812 -3.87E-04
    21 OT DIIS     0.80E-01    3.4     0.00002921     -1636.6229508325 -3.31E-04
    22 OT DIIS     0.80E-01    3.2     0.00002731     -1636.6232039259 -2.53E-04
    23 OT DIIS     0.80E-01    3.1     0.00002569     -1636.6234070086 -2.03E-04
    24 OT DIIS     0.80E-01    3.1     0.00002496     -1636.6235520546 -1.45E-04
    25 OT DIIS     0.80E-01    3.1     0.00002438     -1636.6236923740 -1.40E-04
    26 OT DIIS     0.80E-01    3.0     0.00002382     -1636.6238204651 -1.28E-04
    27 OT DIIS     0.80E-01    3.1     0.00002335     -1636.6239522418 -1.32E-04
    28 OT DIIS     0.80E-01    3.1     0.00002282     -1636.6240600068 -1.08E-04
    29 OT DIIS     0.80E-01    3.1     0.00002240     -1636.6241516782 -9.17E-05
    30 OT DIIS     0.80E-01    3.1     0.00002210     -1636.6242352423 -8.36E-05
    31 OT DIIS     0.80E-01    3.1     0.00002185     -1636.6243264228 -9.12E-05
    32 OT DIIS     0.80E-01    3.0     0.00002172     -1636.6244242721 -9.78E-05
    33 OT DIIS     0.80E-01    3.1     0.00002158     -1636.6245396540 -1.15E-04
    34 OT DIIS     0.80E-01    3.0     0.00002147     -1636.6246512998 -1.12E-04
    35 OT DIIS     0.80E-01    3.0     0.00002130     -1636.6247598161 -1.09E-04
    36 OT DIIS     0.80E-01    3.1     0.00002122     -1636.6248446184 -8.48E-05
    37 OT DIIS     0.80E-01    3.0     0.00002114     -1636.6249142101 -6.96E-05
    38 OT DIIS     0.80E-01    3.1     0.00002108     -1636.6249714331 -5.72E-05
    39 OT DIIS     0.80E-01    3.0     0.00002103     -1636.6250189143 -4.75E-05
    40 OT DIIS     0.80E-01    3.1     0.00002101     -1636.6250481014 -2.92E-05
    41 OT SD       0.80E-01    3.0     0.00002101     -1636.6250592562 -1.12E-05
    42 OT SD       0.80E-01    3.1     0.00002102     -1636.6251022957 -4.30E-05
    43 OT SD       0.80E-01    3.0     0.00002105     -1636.6251454037 -4.31E-05
    44 OT SD       0.80E-01    3.0     0.00002110     -1636.6251886069 -4.32E-05
    45 OT SD       0.80E-01    3.1     0.00002124     -1636.6252318927 -4.33E-05
    46 OT SD       0.80E-01    3.0     0.00002186     -1636.6252750437 -4.32E-05
    47 OT SD       0.80E-01    3.0     0.00002500     -1636.6253166663 -4.16E-05
    48 OT SD       0.80E-01    3.0     0.00003839     -1636.6253484968 -3.18E-05
    49 OT SD       0.80E-01    3.1     0.00008032     -1636.6253218462  2.67E-05
    50 OT SD       0.80E-01    3.1     0.00018932     -1636.6249489017  3.73E-04
    51 OT DIIS     0.80E-01    3.1     0.00045841     -1636.6225216308  2.43E-03
    52 OT DIIS     0.80E-01    3.0     0.00002146     -1636.6243251014 -1.80E-03
    53 OT SD       0.80E-01    3.1     0.00002091     -1636.6244108321 -8.57E-05
    54 OT SD       0.80E-01    3.0     0.00002253     -1636.6244494517 -3.86E-05
    55 OT SD       0.80E-01    3.0     0.00003113     -1636.6244817105 -3.23E-05
    56 OT SD       0.80E-01    3.0     0.00006008     -1636.6244823635 -6.53E-07
    57 OT DIIS     0.80E-01    3.1     0.00013727     -1636.6243027876  1.80E-04
    58 OT DIIS     0.80E-01    3.0     0.00001966     -1636.6246753040 -3.73E-04
    59 OT DIIS     0.80E-01    3.1     0.00001952     -1636.6248093996 -1.34E-04
    60 OT DIIS     0.80E-01    3.1     0.00001957     -1636.6248372875 -2.79E-05
    61 OT DIIS     0.80E-01    3.0     0.00001925     -1636.6249250229 -8.77E-05
    62 OT SD       0.80E-01    3.0     0.00001928     -1636.6249581412 -3.31E-05
    63 OT SD       0.80E-01    3.0     0.00001937     -1636.6249943738 -3.62E-05
    64 OT SD       0.80E-01    3.0     0.00001959     -1636.6250307806 -3.64E-05
    65 OT SD       0.80E-01    3.1     0.00002053     -1636.6250670343 -3.63E-05
    66 OT SD       0.80E-01    3.0     0.00002520     -1636.6251010855 -3.41E-05
    67 OT SD       0.80E-01    3.0     0.00004366     -1636.6251205125 -1.94E-05
    68 OT SD       0.80E-01    3.1     0.00009790     -1636.6250500489  7.05E-05
    69 OT SD       0.80E-01    3.1     0.00023703     -1636.6244324900  6.18E-04
    70 OT DIIS     0.80E-01    3.3     0.00058279     -1636.6204850617  3.95E-03
    71 OT DIIS     0.80E-01    3.4     0.00002752     -1636.6231080686 -2.62E-03
    72 OT DIIS     0.80E-01    3.2     0.00002758     -1636.6231640897 -5.60E-05
    73 OT DIIS     0.80E-01    3.1     0.00002355     -1636.6234888028 -3.25E-04
    74 OT DIIS     0.80E-01    3.2     0.00001960     -1636.6244760851 -9.87E-04
    75 OT SD       0.80E-01    3.1     0.00001884     -1636.6244833161 -7.23E-06
    76 OT DIIS     0.80E-01    3.1     0.00001953     -1636.6245159036 -3.26E-05
    77 OT DIIS     0.80E-01    3.1     0.00001852     -1636.6245346483 -1.87E-05
    78 OT SD       0.80E-01    3.1     0.00001850     -1636.6245582289 -2.36E-05
    79 OT SD       0.80E-01    3.2     0.00001855     -1636.6245914943 -3.33E-05
    80 OT SD       0.80E-01    3.2     0.00001879     -1636.6246247328 -3.32E-05
    81 OT SD       0.80E-01    3.1     0.00001991     -1636.6246575829 -3.29E-05
    82 OT SD       0.80E-01    3.2     0.00002510     -1636.6246878199 -3.02E-05
    83 OT SD       0.80E-01    3.0     0.00004395     -1636.6247027994 -1.50E-05
    84 OT SD       0.80E-01    3.1     0.00009656     -1636.6246304457  7.24E-05
    85 OT DIIS     0.80E-01    3.1     0.00022740     -1636.6240567320  5.74E-04
    86 OT DIIS     0.80E-01    3.0     0.00002133     -1636.6233774594  6.79E-04
    87 OT DIIS     0.80E-01    3.1     0.00002115     -1636.6235038725 -1.26E-04
    88 OT DIIS     0.80E-01    3.0     0.00002125     -1636.6235061830 -2.31E-06
    89 OT SD       0.80E-01    3.1     0.00001869     -1636.6243511812 -8.45E-04
    90 OT SD       0.80E-01    3.1     0.00001932     -1636.6243831635 -3.20E-05
    91 OT SD       0.80E-01    3.0     0.00002176     -1636.6244139392 -3.08E-05
    92 OT SD       0.80E-01    3.1     0.00003060     -1636.6244392295 -2.53E-05
    93 OT DIIS     0.80E-01    3.1     0.00005679     -1636.6244372874  1.94E-06
    94 OT DIIS     0.80E-01    3.1     0.00001823     -1636.6244217540  1.55E-05
    95 OT SD       0.80E-01    3.0     0.00001824     -1636.6244300190 -8.26E-06
    96 OT SD       0.80E-01    3.1     0.00001834     -1636.6244623249 -3.23E-05
    97 OT SD       0.80E-01    3.0     0.00001891     -1636.6244944320 -3.21E-05
    98 OT SD       0.80E-01    3.1     0.00002194     -1636.6245251583 -3.07E-05
    99 OT SD       0.80E-01    3.0     0.00003503     -1636.6245472247 -2.21E-05
   100 OT SD       0.80E-01    3.0     0.00007598     -1636.6245160768  3.11E-05
   101 OT SD       0.80E-01    3.0     0.00018343     -1636.6241582805  3.58E-04
   102 OT DIIS     0.80E-01    3.1     0.00045280     -1636.6217906938  2.37E-03
   103 OT DIIS     0.80E-01    3.1     0.00002097     -1636.6236417922 -1.85E-03
   104 OT SD       0.80E-01    3.2     0.00001904     -1636.6237644375 -1.23E-04
   105 OT DIIS     0.80E-01    3.2     0.00001872     -1636.6237985175 -3.41E-05
   106 OT DIIS     0.80E-01    3.2     0.00001886     -1636.6242187216 -4.20E-04
   107 OT SD       0.80E-01    3.2     0.00001824     -1636.6243894070 -1.71E-04
   108 OT DIIS     0.80E-01    3.2     0.00001850     -1636.6244213281 -3.19E-05
   109 OT SD       0.80E-01    3.3     0.00001820     -1636.6244402333 -1.89E-05
   110 OT DIIS     0.80E-01    3.3     0.00001858     -1636.6244719452 -3.17E-05
   111 OT SD       0.80E-01    3.1     0.00001807     -1636.6245249222 -5.30E-05
   112 OT DIIS     0.80E-01    3.1     0.00001831     -1636.6245564594 -3.15E-05
   113 OT DIIS     0.80E-01    3.1     0.00001807     -1636.6246429905 -8.65E-05
   114 OT SD       0.80E-01    3.1     0.00001808     -1636.6246640937 -2.11E-05
   115 OT SD       0.80E-01    3.0     0.00001817     -1636.6246959119 -3.18E-05
   116 OT SD       0.80E-01    3.1     0.00001841     -1636.6247278413 -3.19E-05
   117 OT SD       0.80E-01    3.1     0.00001932     -1636.6247595915 -3.18E-05
   118 OT SD       0.80E-01    3.1     0.00002320     -1636.6247896200 -3.00E-05
   119 OT SD       0.80E-01    3.3     0.00003727     -1636.6248097603 -2.01E-05
   120 OT SD       0.80E-01    3.2     0.00007701     -1636.6247760899  3.37E-05
   121 OT SD       0.80E-01    3.2     0.00017505     -1636.6244487341  3.27E-04
   122 OT DIIS     0.80E-01    3.3     0.00040859     -1636.6225014426  1.95E-03
   123 OT SD       0.80E-01    3.1     0.00003483     -1636.6225264552 -2.50E-05
   124 OT DIIS     0.80E-01    3.0     0.00003099     -1636.6225931422 -6.67E-05
   125 OT DIIS     0.80E-01    3.1     0.00002818     -1636.6229655915 -3.72E-04
   126 OT DIIS     0.80E-01    3.0     0.00001922     -1636.6243052518 -1.34E-03
   127 OT SD       0.80E-01    3.0     0.00001851     -1636.6243637496 -5.85E-05
   128 OT SD       0.80E-01    3.0     0.00002106     -1636.6243924781 -2.87E-05
   129 OT SD       0.80E-01    3.1     0.00003137     -1636.6244149230 -2.24E-05
   130 OT DIIS     0.80E-01    3.0     0.00006394     -1636.6244010939  1.38E-05
   131 OT SD       0.80E-01    3.0     0.00001760     -1636.6243645864  3.65E-05
   132 OT SD       0.80E-01    3.1     0.00001764     -1636.6243947478 -3.02E-05
   133 OT SD       0.80E-01    3.0     0.00001777     -1636.6244249417 -3.02E-05
   134 OT SD       0.80E-01    3.0     0.00001835     -1636.6244549941 -3.01E-05
   135 OT SD       0.80E-01    3.0     0.00002113     -1636.6244838662 -2.89E-05
   136 OT SD       0.80E-01    3.0     0.00003254     -1636.6245056329 -2.18E-05
   137 OT SD       0.80E-01    3.0     0.00006758     -1636.6244861396  1.95E-05
   138 OT SD       0.80E-01    3.0     0.00015822     -1636.6242255720  2.61E-04
   139 OT DIIS     0.80E-01    3.0     0.00038228     -1636.6225396790  1.69E-03
   140 OT DIIS     0.80E-01    3.0     0.00002528     -1636.6228050877 -2.65E-04
   141 OT DIIS     0.80E-01    3.0     0.00002592     -1636.6228051164 -2.87E-08
   142 OT DIIS     0.80E-01    3.1     0.00002404     -1636.6229385878 -1.33E-04
   143 OT DIIS     0.80E-01    3.0     0.00001809     -1636.6240687889 -1.13E-03
   144 OT SD       0.80E-01    3.1     0.00001798     -1636.6241488724 -8.01E-05
   145 OT SD       0.80E-01    3.0     0.00001959     -1636.6241771901 -2.83E-05
   146 OT SD       0.80E-01    3.0     0.00002577     -1636.6242021642 -2.50E-05
   147 OT SD       0.80E-01    3.1     0.00004559     -1636.6242104122 -8.25E-06
   148 OT DIIS     0.80E-01    3.0     0.00009828     -1636.6241289361  8.15E-05
   149 OT SD       0.80E-01    3.0     0.00001734     -1636.6242128500 -8.39E-05
   150 OT SD       0.80E-01    3.1     0.00001737     -1636.6242421011 -2.93E-05
   151 OT SD       0.80E-01    3.1     0.00001750     -1636.6242713294 -2.92E-05
   152 OT SD       0.80E-01    3.1     0.00001810     -1636.6243003514 -2.90E-05
   153 OT SD       0.80E-01    3.0     0.00002096     -1636.6243281055 -2.78E-05
   154 OT SD       0.80E-01    3.0     0.00003244     -1636.6243486681 -2.06E-05
   155 OT SD       0.80E-01    3.0     0.00006703     -1636.6243285968  2.01E-05
   156 OT SD       0.80E-01    3.0     0.00015547     -1636.6240761169  2.52E-04
   157 OT DIIS     0.80E-01    3.1     0.00037208     -1636.6224753088  1.60E-03
   158 OT SD       0.80E-01    3.0     0.00001927     -1636.6233000960 -8.25E-04
   159 OT SD       0.80E-01    3.0     0.00001850     -1636.6233317951 -3.17E-05
   160 OT DIIS     0.80E-01    3.1     0.00001934     -1636.6233605814 -2.88E-05
   161 OT SD       0.80E-01    3.0     0.00001754     -1636.6237716174 -4.11E-04
   162 OT SD       0.80E-01    3.1     0.00001865     -1636.6238000055 -2.84E-05
   163 OT SD       0.80E-01    3.0     0.00002423     -1636.6238254627 -2.55E-05
   164 OT SD       0.80E-01    3.0     0.00004472     -1636.6238342002 -8.74E-06
   165 OT DIIS     0.80E-01    3.0     0.00010214     -1636.6237436645  9.05E-05
   166 OT DIIS     0.80E-01    3.0     0.00001710     -1636.6238841847 -1.41E-04
   167 OT DIIS     0.80E-01    3.0     0.00001700     -1636.6239868570 -1.03E-04
   168 OT DIIS     0.80E-01    3.0     0.00001702     -1636.6240925100 -1.06E-04
   169 OT DIIS     0.80E-01    3.1     0.00001654     -1636.6241982516 -1.06E-04
   170 OT SD       0.80E-01    3.1     0.00001651     -1636.6243418274 -1.44E-04
   171 OT SD       0.80E-01    3.0     0.00001677     -1636.6243680078 -2.62E-05
   172 OT SD       0.80E-01    3.0     0.00001820     -1636.6243935522 -2.55E-05
   173 OT SD       0.80E-01    3.0     0.00002471     -1636.6244157990 -2.22E-05
   174 OT SD       0.80E-01    3.1     0.00004660     -1636.6244195556 -3.76E-06
   175 OT SD       0.80E-01    3.0     0.00010475     -1636.6243189408  1.01E-04
   176 OT DIIS     0.80E-01    3.6     0.00024669     -1636.6236267088  6.92E-04
   177 OT SD       0.80E-01    3.1     0.00001653     -1636.6240813751 -4.55E-04
   178 OT SD       0.80E-01    3.2     0.00001765     -1636.6241064444 -2.51E-05
   179 OT SD       0.80E-01    3.1     0.00002332     -1636.6241286590 -2.22E-05
   180 OT SD       0.80E-01    3.1     0.00004402     -1636.6241344700 -5.81E-06
   181 OT DIIS     0.80E-01    3.4     0.00010197     -1636.6240410235  9.34E-05
   182 OT DIIS     0.80E-01    3.2     0.00001643     -1636.6240176570  2.34E-05
   183 OT SD       0.80E-01    3.2     0.00001621     -1636.6241780236 -1.60E-04
   184 OT SD       0.80E-01    3.1     0.00001660     -1636.6242031395 -2.51E-05
   185 OT SD       0.80E-01    3.3     0.00001832     -1636.6242275540 -2.44E-05
   186 OT SD       0.80E-01    3.5     0.00002510     -1636.6242484598 -2.09E-05
   187 OT SD       0.80E-01    3.4     0.00004572     -1636.6242518511 -3.39E-06
   188 OT SD       0.80E-01    3.2     0.00009708     -1636.6241671919  8.47E-05
   189 OT DIIS     0.80E-01    3.2     0.00021609     -1636.6236353124  5.32E-04
   190 OT SD       0.80E-01    3.2     0.00001607     -1636.6239335794 -2.98E-04
   191 OT SD       0.80E-01    3.2     0.00001600     -1636.6239584027 -2.48E-05
   192 OT SD       0.80E-01    3.2     0.00001614     -1636.6239829528 -2.46E-05
   193 OT SD       0.80E-01    3.2     0.00001680     -1636.6240071902 -2.42E-05
   194 OT SD       0.80E-01    3.2     0.00001994     -1636.6240300545 -2.29E-05
   195 OT DIIS     0.80E-01    3.2     0.00003240     -1636.6240452538 -1.52E-05
   196 OT SD       0.80E-01    3.1     0.00001587     -1636.6240778717 -3.26E-05
   197 OT SD       0.80E-01    3.2     0.00001588     -1636.6241024299 -2.46E-05
   198 OT SD       0.80E-01    3.1     0.00001589     -1636.6241270077 -2.46E-05
   199 OT SD       0.80E-01    3.1     0.00001593     -1636.6241516054 -2.46E-05
   200 OT SD       0.80E-01    3.2     0.00001608     -1636.6241761887 -2.46E-05

  Leaving inner SCF loop after reaching   200 steps.


  Electronic density on regular grids:       -895.9999975701        0.0000024299
  Core density on regular grids:              895.9999999257       -0.0000000743
  Total charge density on r-space grids:        0.0000023556
  Total charge density g-space grids:           0.0000023556

  Overlap energy of the core charge distribution:               0.00009929911184
  Self energy of the core charge distribution:              -3531.67332257831958
  Core Hamiltonian energy:                                   1024.85310596727413
  Hartree energy:                                            1262.83341621755744
  Exchange-correlation energy:                               -391.80824380319871
  Dispersion energy:                                           -0.82923129108625

  Total energy:                                             -1636.62417618866129

  outer SCF iter =    1 RMS gradient =   0.16E-04 energy =      -1636.6241761887

  ----------------------------------- OT ---------------------------------------
  Minimizer      : DIIS                : direct inversion
                                         in the iterative subspace
                                         using   7 DIIS vectors
                                         safer DIIS on
  Preconditioner : FULL_SINGLE_INVERSE : inversion of 
                                         H + eS - 2*(Sc)(c^T*H*c+const)(Sc)^T
  Precond_solver : DEFAULT
  stepsize       :    0.08000000                  energy_gap     :    0.08000000
  eps_taylor     :   0.10000E-15                  max_taylor     :             4
  ----------------------------------- OT ---------------------------------------

  Step     Update method      Time    Convergence         Total energy    Change
  ------------------------------------------------------------------------------
     1 OT DIIS     0.80E-01    8.6     0.00001699     -1636.6242005372 -2.43E-05
     2 OT DIIS     0.80E-01    3.1     0.00002046     -1636.6242239762 -2.34E-05
     3 OT DIIS     0.80E-01    3.0     0.00001613     -1636.6242338346 -9.86E-06
     4 OT SD       0.80E-01    3.0     0.00001613     -1636.6242366080 -2.77E-06
     5 OT SD       0.80E-01    3.1     0.00001616     -1636.6242619684 -2.54E-05
     6 OT SD       0.80E-01    3.1     0.00001625     -1636.6242873473 -2.54E-05
     7 OT SD       0.80E-01    3.0     0.00001670     -1636.6243126188 -2.53E-05
     8 OT SD       0.80E-01    3.1     0.00001900     -1636.6243369937 -2.44E-05
     9 OT SD       0.80E-01    3.2     0.00002912     -1636.6243557288 -1.87E-05
    10 OT SD       0.80E-01    3.0     0.00006147     -1636.6243401558  1.56E-05
    11 OT SD       0.80E-01    3.1     0.00014705     -1636.6241154310  2.25E-04
    12 OT DIIS     0.80E-01    3.1     0.00036218     -1636.6226070381  1.51E-03
    13 OT DIIS     0.80E-01    3.4     0.00001703     -1636.6235280209 -9.21E-04
    14 OT DIIS     0.80E-01    3.1     0.00001634     -1636.6236652162 -1.37E-04
    15 OT DIIS     0.80E-01    3.1     0.00001637     -1636.6236741068 -8.89E-06
    16 OT DIIS     0.80E-01    3.2     0.00001609     -1636.6239446181 -2.71E-04
    17 OT DIIS     0.80E-01    3.2     0.00001617     -1636.6239572825 -1.27E-05
    18 OT DIIS     0.80E-01    3.3     0.00001607     -1636.6240335608 -7.63E-05
    19 OT DIIS     0.80E-01    3.2     0.00001598     -1636.6241062044 -7.26E-05
    20 OT SD       0.80E-01    3.3     0.00001597     -1636.6241201950 -1.40E-05
    21 OT SD       0.80E-01    3.2     0.00001606     -1636.6241449834 -2.48E-05
    22 OT SD       0.80E-01    3.1     0.00001650     -1636.6241696408 -2.47E-05
    23 OT SD       0.80E-01    3.1     0.00001884     -1636.6241933764 -2.37E-05
    24 OT SD       0.80E-01    3.0     0.00002907     -1636.6242114076 -1.80E-05
    25 OT SD       0.80E-01    3.1     0.00006172     -1636.6241947298  1.67E-05
    26 OT SD       0.80E-01    3.1     0.00014803     -1636.6239659291  2.29E-04
    27 OT DIIS     0.80E-01    3.0     0.00036518     -1636.6224318300  1.53E-03
    28 OT DIIS     0.80E-01    3.1     0.00001631     -1636.6235834787 -1.15E-03
    29 OT SD       0.80E-01    3.1     0.00001628     -1636.6237110848 -1.28E-04
    30 OT DIIS     0.80E-01    3.1     0.00001628     -1636.6237362396 -2.52E-05
    31 OT SD       0.80E-01    3.0     0.00001603     -1636.6240237807 -2.88E-04
    32 OT DIIS     0.80E-01    3.1     0.00001635     -1636.6240482885 -2.45E-05
    33 OT DIIS     0.80E-01    3.1     0.00001599     -1636.6241568540 -1.09E-04
    34 OT SD       0.80E-01    3.0     0.00001597     -1636.6241676881 -1.08E-05
    35 OT SD       0.80E-01    3.0     0.00001606     -1636.6241924609 -2.48E-05
    36 OT SD       0.80E-01    3.1     0.00001647     -1636.6242171347 -2.47E-05
    37 OT SD       0.80E-01    3.1     0.00001859     -1636.6242409986 -2.39E-05
    38 OT SD       0.80E-01    3.1     0.00002793     -1636.6242598175 -1.88E-05
    39 OT SD       0.80E-01    3.0     0.00005799     -1636.6242483190  1.15E-05
    40 OT SD       0.80E-01    3.2     0.00013725     -1636.6240548837  1.93E-04
    41 OT DIIS     0.80E-01    3.1     0.00033469     -1636.6227658346  1.29E-03
    42 OT DIIS     0.80E-01    3.0     0.00001678     -1636.6234061638 -6.40E-04
    43 OT DIIS     0.80E-01    3.1     0.00001679     -1636.6235101527 -1.04E-04
    44 OT DIIS     0.80E-01    3.1     0.00001673     -1636.6235399160 -2.98E-05
    45 OT SD       0.80E-01    3.1     0.00001616     -1636.6242735882 -7.34E-04
    46 OT SD       0.80E-01    3.0     0.00001649     -1636.6242985496 -2.50E-05
    47 OT SD       0.80E-01    3.1     0.00001787     -1636.6243230214 -2.45E-05
    48 OT SD       0.80E-01    3.1     0.00002357     -1636.6243447670 -2.17E-05
    49 OT SD       0.80E-01    3.1     0.00004221     -1636.6243519866 -7.22E-06
    50 OT SD       0.80E-01    3.0     0.00009116     -1636.6242814980  7.05E-05
    51 OT DIIS     0.80E-01    3.1     0.00020896     -1636.6237901660  4.91E-04
    52 OT DIIS     0.80E-01    3.2     0.00001764     -1636.6233053975  4.85E-04
    53 OT DIIS     0.80E-01    3.1     0.00001801     -1636.6234066606 -1.01E-04
    54 OT DIIS     0.80E-01    3.0     0.00001729     -1636.6235537477 -1.47E-04
    55 OT SD       0.80E-01    3.1     0.00001628     -1636.6243827790 -8.29E-04
    56 OT DIIS     0.80E-01    3.1     0.00001654     -1636.6244081766 -2.54E-05
    57 OT DIIS     0.80E-01    3.1     0.00001633     -1636.6244307743 -2.26E-05
    58 OT SD       0.80E-01    3.0     0.00001635     -1636.6244559929 -2.52E-05
    59 OT SD       0.80E-01    3.2     0.00001658     -1636.6244817267 -2.57E-05
    60 OT SD       0.80E-01    3.1     0.00001782     -1636.6245070283 -2.53E-05
    61 OT SD       0.80E-01    3.1     0.00002381     -1636.6245295191 -2.25E-05
    62 OT SD       0.80E-01    3.0     0.00004564     -1636.6245343876 -4.87E-06
    63 OT SD       0.80E-01    3.1     0.00010698     -1636.6244298757  1.05E-04
    64 OT DIIS     0.80E-01    3.1     0.00026408     -1636.6236440140  7.86E-04
    65 OT DIIS     0.80E-01    3.3     0.00001971     -1636.6232246267  4.19E-04
    66 OT DIIS     0.80E-01    3.2     0.00001942     -1636.6234623600 -2.38E-04
    67 OT DIIS     0.80E-01    3.0     0.00002108     -1636.6235959458 -1.34E-04
    68 OT DIIS     0.80E-01    3.0     0.00001652     -1636.6244382177 -8.42E-04
    69 OT SD       0.80E-01    3.0     0.00001667     -1636.6244546667 -1.64E-05
    70 OT SD       0.80E-01    3.0     0.00001780     -1636.6244798401 -2.52E-05
    71 OT SD       0.80E-01    3.0     0.00002232     -1636.6245029596 -2.31E-05
    72 OT SD       0.80E-01    3.0     0.00003763     -1636.6245152798 -1.23E-05
    73 OT SD       0.80E-01    2.9     0.00007911     -1636.6244700790  4.52E-05
    74 OT SD       0.80E-01    3.0     0.00018008     -1636.6241136095  3.56E-04
    75 OT DIIS     0.80E-01    3.0     0.00041963     -1636.6220491401  2.06E-03
    76 OT DIIS     0.80E-01    3.0     0.00001870     -1636.6233808067 -1.33E-03
    77 OT DIIS     0.80E-01    3.0     0.00001870     -1636.6234454589 -6.47E-05
    78 OT DIIS     0.80E-01    3.0     0.00001747     -1636.6236111500 -1.66E-04
    79 OT SD       0.80E-01    2.9     0.00001658     -1636.6244870299 -8.76E-04
    80 OT SD       0.80E-01    2.9     0.00001704     -1636.6245127433 -2.57E-05
    81 OT SD       0.80E-01    3.0     0.00001897     -1636.6245376989 -2.50E-05
    82 OT SD       0.80E-01    2.9     0.00002642     -1636.6245587768 -2.11E-05
    83 OT SD       0.80E-01    3.0     0.00004993     -1636.6245587521  2.47E-08
    84 OT SD       0.80E-01    3.0     0.00011160     -1636.6244410408  1.18E-04
    85 OT DIIS     0.80E-01    3.0     0.00026282     -1636.6236540730  7.87E-04
    86 OT DIIS     0.80E-01    3.0     0.00001866     -1636.6233991857  2.55E-04
    87 OT DIIS     0.80E-01    2.9     0.00001804     -1636.6236891759 -2.90E-04
    88 OT DIIS     0.80E-01    3.0     0.00001947     -1636.6239087944 -2.20E-04
    89 OT SD       0.80E-01    3.0     0.00001677     -1636.6245946736 -6.86E-04
    90 OT SD       0.80E-01    3.0     0.00001731     -1636.6246209096 -2.62E-05
    91 OT SD       0.80E-01    3.0     0.00001968     -1636.6246461350 -2.52E-05
    92 OT SD       0.80E-01    3.0     0.00002895     -1636.6246661865 -2.01E-05
    93 OT SD       0.80E-01    2.9     0.00005800     -1636.6246567431  9.44E-06
    94 OT SD       0.80E-01    3.0     0.00013491     -1636.6244734292  1.83E-04
    95 OT DIIS     0.80E-01    2.9     0.00032804     -1636.6232420362  1.23E-03
    96 OT DIIS     0.80E-01    3.0     0.00001829     -1636.6235772742 -3.35E-04
    97 OT SD       0.80E-01    3.0     0.00001711     -1636.6239401179 -3.63E-04
    98 OT SD       0.80E-01    2.9     0.00001833     -1636.6239648031 -2.47E-05
    99 OT SD       0.80E-01    3.0     0.00002519     -1636.6239848585 -2.01E-05
   100 OT DIIS     0.80E-01    3.0     0.00004813     -1636.6239848635 -5.10E-09
   101 OT DIIS     0.80E-01    2.9     0.00001601     -1636.6240087034 -2.38E-05
   102 OT SD       0.80E-01    3.0     0.00001596     -1636.6242093127 -2.01E-04
   103 OT SD       0.80E-01    3.0     0.00001611     -1636.6242338938 -2.46E-05
   104 OT SD       0.80E-01    2.9     0.00001675     -1636.6242582675 -2.44E-05
   105 OT SD       0.80E-01    3.0     0.00001955     -1636.6242815022 -2.32E-05
   106 OT SD       0.80E-01    3.0     0.00002995     -1636.6242986927 -1.72E-05
   107 OT SD       0.80E-01    3.0     0.00006038     -1636.6242833935  1.53E-05
   108 OT SD       0.80E-01    3.5     0.00013744     -1636.6240879872  1.95E-04
   109 OT DIIS     0.80E-01    3.2     0.00032562     -1636.6228649197  1.22E-03
   110 OT DIIS     0.80E-01    3.1     0.00001908     -1636.6230981989 -2.33E-04
   111 OT DIIS     0.80E-01    3.3     0.00001941     -1636.6232704698 -1.72E-04
   112 OT DIIS     0.80E-01    3.1     0.00001739     -1636.6235575014 -2.87E-04
   113 OT DIIS     0.80E-01    3.1     0.00001654     -1636.6243804573 -8.23E-04
   114 OT DIIS     0.80E-01    3.2     0.00001644     -1636.6244317286 -5.13E-05
   115 OT SD       0.80E-01    3.2     0.00001683     -1636.6245989028 -1.67E-04
   116 OT SD       0.80E-01    3.1     0.00001699     -1636.6246254061 -2.65E-05
   117 OT SD       0.80E-01    3.1     0.00001807     -1636.6246511805 -2.58E-05
   118 OT SD       0.80E-01    3.2     0.00002227     -1636.6246750195 -2.38E-05
   119 OT SD       0.80E-01    3.2     0.00003666     -1636.6246889758 -1.40E-05
   120 OT SD       0.80E-01    3.1     0.00007685     -1636.6246491670  3.98E-05
   121 OT DIIS     0.80E-01    3.1     0.00017757     -1636.6243070786  3.42E-04
   122 OT SD       0.80E-01    3.2     0.00001649     -1636.6239778400  3.29E-04
   123 OT SD       0.80E-01    3.2     0.00001693     -1636.6240025820 -2.47E-05
   124 OT SD       0.80E-01    3.2     0.00002000     -1636.6240252212 -2.26E-05
   125 OT SD       0.80E-01    3.1     0.00003190     -1636.6240403330 -1.51E-05
   126 OT SD       0.80E-01    3.0     0.00006713     -1636.6240142876  2.60E-05
   127 OT DIIS     0.80E-01    3.0     0.00015785     -1636.6237483510  2.66E-04
   128 OT SD       0.80E-01    3.0     0.00001569     -1636.6241179005 -3.70E-04
   129 OT SD       0.80E-01    3.0     0.00001570     -1636.6241419047 -2.40E-05
   130 OT SD       0.80E-01    2.9     0.00001573     -1636.6241659325 -2.40E-05
   131 OT SD       0.80E-01    3.0     0.00001584     -1636.6241899659 -2.40E-05
   132 OT SD       0.80E-01    3.0     0.00001634     -1636.6242138607 -2.39E-05
   133 OT SD       0.80E-01    3.0     0.00001886     -1636.6242367663 -2.29E-05
   134 OT SD       0.80E-01    3.0     0.00002936     -1636.6242537619 -1.70E-05
   135 OT SD       0.80E-01    3.0     0.00006171     -1636.6242360967  1.77E-05
   136 OT SD       0.80E-01    3.0     0.00014570     -1636.6240135168  2.23E-04
   137 OT DIIS     0.80E-01    3.0     0.00035427     -1636.6225653651  1.45E-03
   138 OT DIIS     0.80E-01    3.0     0.00002007     -1636.6230524511 -4.87E-04
   139 OT DIIS     0.80E-01    2.9     0.00001949     -1636.6230971350 -4.47E-05
   140 OT DIIS     0.80E-01    3.0     0.00002006     -1636.6231367573 -3.96E-05
   141 OT DIIS     0.80E-01    3.0     0.00001614     -1636.6242126778 -1.08E-03
   142 OT DIIS     0.80E-01    3.0     0.00001615     -1636.6244662013 -2.54E-04
   143 OT SD       0.80E-01    2.9     0.00001652     -1636.6246843552 -2.18E-04
   144 OT SD       0.80E-01    3.0     0.00001677     -1636.6247100641 -2.57E-05
   145 OT SD       0.80E-01    3.0     0.00001781     -1636.6247353052 -2.52E-05
   146 OT SD       0.80E-01    2.9     0.00002161     -1636.6247588931 -2.36E-05
   147 OT SD       0.80E-01    3.0     0.00003430     -1636.6247742494 -1.54E-05
   148 OT SD       0.80E-01    3.0     0.00006995     -1636.6247459401  2.83E-05
   149 OT SD       0.80E-01    3.0     0.00016017     -1636.6244734467  2.72E-04
   150 OT DIIS     0.80E-01    3.0     0.00038257     -1636.6227822693  1.69E-03
   151 OT DIIS     0.80E-01    3.0     0.00002297     -1636.6232897000 -5.07E-04
   152 OT DIIS     0.80E-01    2.9     0.00002194     -1636.6236291315 -3.39E-04
   153 OT DIIS     0.80E-01    2.9     0.00001929     -1636.6240494034 -4.20E-04
   154 OT SD       0.80E-01    3.0     0.00001851     -1636.6251692317 -1.12E-03
   155 OT DIIS     0.80E-01    2.9     0.00001836     -1636.6251991018 -2.99E-05
   156 OT DIIS     0.80E-01    3.0     0.00002116     -1636.6252791094 -8.00E-05
   157 OT SD       0.80E-01    3.0     0.00002163     -1636.6254373035 -1.58E-04
   158 OT SD       0.80E-01    3.0     0.00002288     -1636.6254697535 -3.24E-05
   159 OT SD       0.80E-01    3.0     0.00003090     -1636.6254923603 -2.26E-05
   160 OT SD       0.80E-01    3.0     0.00005254     -1636.6254926305 -2.70E-07
   161 OT SD       0.80E-01    3.0     0.00010443     -1636.6253956974  9.69E-05
   162 OT DIIS     0.80E-01    3.0     0.00022399     -1636.6248299466  5.66E-04
   163 OT DIIS     0.80E-01    3.0     0.00001719     -1636.6255681696 -7.38E-04
   164 OT DIIS     0.80E-01    3.0     0.00001717     -1636.6255846873 -1.65E-05
   165 OT DIIS     0.80E-01    3.0     0.00001717     -1636.6256158121 -3.11E-05
   166 OT DIIS     0.80E-01    3.0     0.00001717     -1636.6256223003 -6.49E-06
   167 OT DIIS     0.80E-01    3.0     0.00001717     -1636.6256273148 -5.01E-06
   168 OT DIIS     0.80E-01    3.0     0.00001717     -1636.6256344057 -7.09E-06
   169 OT DIIS     0.80E-01    3.0     0.00001717     -1636.6256586183 -2.42E-05
   170 OT DIIS     0.80E-01    3.0     0.00001716     -1636.6256881972 -2.96E-05
   171 OT DIIS     0.80E-01    3.1     0.00001717     -1636.6257238397 -3.56E-05
   172 OT DIIS     0.80E-01    3.0     0.00001719     -1636.6257452926 -2.15E-05
   173 OT DIIS     0.80E-01    3.0     0.00001720     -1636.6257598704 -1.46E-05
   174 OT DIIS     0.80E-01    3.1     0.00001716     -1636.6257923964 -3.25E-05
   175 OT DIIS     0.80E-01    3.0     0.00001718     -1636.6258145615 -2.22E-05
   176 OT DIIS     0.80E-01    3.0     0.00001709     -1636.6259043684 -8.98E-05
   177 OT DIIS     0.80E-01    3.1     0.00001680     -1636.6261488308 -2.44E-04
   178 OT DIIS     0.80E-01    3.1     0.00001649     -1636.6264775596 -3.29E-04
   179 OT SD       0.80E-01    3.0     0.00001694     -1636.6266274091 -1.50E-04
   180 OT SD       0.80E-01    3.0     0.00002300     -1636.6266460297 -1.86E-05
   181 OT DIIS     0.80E-01    3.1     0.00004360     -1636.6266481388 -2.11E-06
   182 OT DIIS     0.80E-01    3.0     0.00001870     -1636.6267266086 -7.85E-05
   183 OT DIIS     0.80E-01    3.0     0.00001445     -1636.6270498453 -3.23E-04
   184 OT DIIS     0.80E-01    3.0     0.00001393     -1636.6271390936 -8.92E-05
   185 OT DIIS     0.80E-01    3.0     0.00001286     -1636.6271986700 -5.96E-05
   186 OT DIIS     0.80E-01    3.0     0.00001272     -1636.6272254228 -2.68E-05
   187 OT DIIS     0.80E-01    3.0     0.00001273     -1636.6272755522 -5.01E-05
   188 OT DIIS     0.80E-01    3.1     0.00001255     -1636.6273003792 -2.48E-05
   189 OT DIIS     0.80E-01    3.1     0.00001260     -1636.6273213582 -2.10E-05
   190 OT SD       0.80E-01    3.1     0.00001255     -1636.6273438360 -2.25E-05
   191 OT SD       0.80E-01    3.1     0.00001258     -1636.6273591834 -1.53E-05
   192 OT SD       0.80E-01    3.0     0.00001266     -1636.6273745755 -1.54E-05
   193 OT SD       0.80E-01    3.1     0.00001293     -1636.6273899695 -1.54E-05
   194 OT SD       0.80E-01    3.0     0.00001412     -1636.6274050779 -1.51E-05
   195 OT SD       0.80E-01    3.1     0.00001911     -1636.6274183224 -1.32E-05
   196 OT SD       0.80E-01    3.0     0.00003529     -1636.6274211945 -2.87E-06
   197 OT SD       0.80E-01    3.0     0.00007745     -1636.6273675582  5.36E-05
   198 OT DIIS     0.80E-01    3.1     0.00017881     -1636.6270048568  3.63E-04
   199 OT SD       0.80E-01    3.0     0.00001193     -1636.6271451424 -1.40E-04
   200 OT SD       0.80E-01    3.0     0.00001203     -1636.6271583493 -1.32E-05

  Leaving inner SCF loop after reaching   200 steps.


  Electronic density on regular grids:       -895.9999975103        0.0000024897
  Core density on regular grids:              895.9999999257       -0.0000000743
  Total charge density on r-space grids:        0.0000024154
  Total charge density g-space grids:           0.0000024154

  Overlap energy of the core charge distribution:               0.00009929911184
  Self energy of the core charge distribution:              -3531.67332257831958
  Core Hamiltonian energy:                                   1024.86159019820616
  Hartree energy:                                            1262.82391016553856
  Exchange-correlation energy:                               -391.81020414275542
  Dispersion energy:                                           -0.82923129108625

  Total energy:                                             -1636.62715834930486

  outer SCF iter =    2 RMS gradient =   0.12E-04 energy =      -1636.6271583493

  ----------------------------------- OT ---------------------------------------
  Minimizer      : DIIS                : direct inversion
                                         in the iterative subspace
                                         using   7 DIIS vectors
                                         safer DIIS on
  Preconditioner : FULL_SINGLE_INVERSE : inversion of 
                                         H + eS - 2*(Sc)(c^T*H*c+const)(Sc)^T
  Precond_solver : DEFAULT
  stepsize       :    0.08000000                  energy_gap     :    0.08000000
  eps_taylor     :   0.10000E-15                  max_taylor     :             4
  ----------------------------------- OT ---------------------------------------

  Step     Update method      Time    Convergence         Total energy    Change
  ------------------------------------------------------------------------------
     1 OT DIIS     0.80E-01    8.1     0.00001340     -1636.6271708248 -1.25E-05
     2 OT DIIS     0.80E-01    3.0     0.00001926     -1636.6271808289 -1.00E-05
     3 OT DIIS     0.80E-01    2.9     0.00001149     -1636.6271883226 -7.49E-06
     4 OT DIIS     0.80E-01    3.0     0.00001145     -1636.6271951398 -6.82E-06
     5 OT DIIS     0.80E-01    2.9     0.00001144     -1636.6272257558 -3.06E-05
     6 OT DIIS     0.80E-01    2.9     0.00001139     -1636.6272652831 -3.95E-05
     7 OT SD       0.80E-01    3.0     0.00001138     -1636.6272749843 -9.70E-06
     8 OT SD       0.80E-01    3.0     0.00001139     -1636.6272876192 -1.26E-05
     9 OT SD       0.80E-01    2.9     0.00001141     -1636.6273002745 -1.27E-05
    10 OT SD       0.80E-01    3.0     0.00001147     -1636.6273129504 -1.27E-05
    11 OT SD       0.80E-01    3.0     0.00001168     -1636.6273256100 -1.27E-05
    12 OT SD       0.80E-01    3.0     0.00001277     -1636.6273380066 -1.24E-05
    13 OT SD       0.80E-01    2.9     0.00001777     -1636.6273486653 -1.07E-05
    14 OT SD       0.80E-01    2.9     0.00003481     -1636.6273488397 -1.74E-07
    15 OT SD       0.80E-01    3.0     0.00008092     -1636.6272863132  6.25E-05
    16 OT DIIS     0.80E-01    2.9     0.00019642     -1636.6268472090  4.39E-04
    17 OT SD       0.80E-01    3.0     0.00001105     -1636.6271703984 -3.23E-04
    18 OT SD       0.80E-01    3.0     0.00001094     -1636.6271817810 -1.14E-05
    19 OT SD       0.80E-01    3.0     0.00001132     -1636.6271927958 -1.10E-05
    20 OT SD       0.80E-01    3.0     0.00001312     -1636.6272032001 -1.04E-05
    21 OT SD       0.80E-01    3.0     0.00001986     -1636.6272109100 -7.71E-06
    22 OT DIIS     0.80E-01    2.9     0.00003945     -1636.6272047606  6.15E-06
    23 OT DIIS     0.80E-01    3.0     0.00001062     -1636.6272452869 -4.05E-05
    24 OT DIIS     0.80E-01    2.9     0.00001062     -1636.6272618256 -1.65E-05
    25 OT DIIS     0.80E-01    3.0     0.00001062     -1636.6272666914 -4.87E-06
    26 OT SD       0.80E-01    3.0     0.00001062     -1636.6272670018 -3.10E-07
    27 OT SD       0.80E-01    3.0     0.00001062     -1636.6272779923 -1.10E-05
    28 OT SD       0.80E-01    3.0     0.00001063     -1636.6272889914 -1.10E-05
    29 OT SD       0.80E-01    3.0     0.00001068     -1636.6272999967 -1.10E-05
    30 OT SD       0.80E-01    3.0     0.00001088     -1636.6273109709 -1.10E-05
    31 OT SD       0.80E-01    3.0     0.00001202     -1636.6273216654 -1.07E-05
    32 OT SD       0.80E-01    3.0     0.00001743     -1636.6273305252 -8.86E-06
    33 OT SD       0.80E-01    3.0     0.00003586     -1636.6273279169  2.61E-06
    34 OT DIIS     0.80E-01    2.9     0.00008585     -1636.6272541159  7.38E-05
    35 OT SD       0.80E-01    3.0     0.00001021     -1636.6272682206 -1.41E-05
    36 OT SD       0.80E-01    3.0     0.00001018     -1636.6272778524 -9.63E-06
    37 OT SD       0.80E-01    3.0     0.00001105     -1636.6272869290 -9.08E-06
    38 OT SD       0.80E-01    3.0     0.00001481     -1636.6272947357 -7.81E-06
    39 OT SD       0.80E-01    3.0     0.00002678     -1636.6272965612 -1.83E-06
    40 OT DIIS     0.80E-01    3.0     0.00005762     -1636.6272673102  2.93E-05
    41 OT DIIS     0.80E-01    3.0     0.00000973     -1636.6273173595 -5.00E-05

  *** SCF run converged in    41 steps ***


  Electronic density on regular grids:       -895.9999975249        0.0000024751
  Core density on regular grids:              895.9999999257       -0.0000000743
  Total charge density on r-space grids:        0.0000024008
  Total charge density g-space grids:           0.0000024008

  Overlap energy of the core charge distribution:               0.00009929911184
  Self energy of the core charge distribution:              -3531.67332257831958
  Core Hamiltonian energy:                                   1024.86048168919410
  Hartree energy:                                            1262.82480881834090
  Exchange-correlation energy:                               -391.81015329675677
  Dispersion energy:                                           -0.82923129108625

  Total energy:                                             -1636.62731735951547

  outer SCF iter =    3 RMS gradient =   0.97E-05 energy =      -1636.6273173595
  outer SCF loop converged in   3 iterations or  441 steps


 ENERGY| Total FORCE_EVAL ( QS ) energy [a.u.]:            -1636.627317991859854

 --------  Informations at step =     1 ------------
  Optimization Method        =                 BFGS
  Total Energy               =     -1636.6273179919
  Real energy change         =        -1.6708345039
  Predicted change in energy =        -1.4414516830
  Scaling factor             =         0.0000000000
  Step size                  =         0.1795355726
  Trust radius               =         0.4724315332
  Decrease in energy         =                  YES
  Used time                  =             1364.625

  Convergence check :
  Max. step size             =         0.1795355726
  Conv. limit for step size  =         0.0010000000
  Convergence in step size   =                   NO
  RMS step size              =         0.0695749497
  Conv. limit for RMS step   =         0.0015000000
  Convergence in RMS step    =                   NO
  Max. gradient              =         0.0332773514
  Conv. limit for gradients  =         0.0004500000
  Conv. for gradients        =                   NO
  RMS gradient               =         0.0107080396
  Conv. limit for RMS grad.  =         0.0003000000
  Conv. for gradients        =                   NO
 ---------------------------------------------------

 --------------------------
 OPTIMIZATION STEP:      2
 --------------------------

 Number of electrons:                                                        896
 Number of occupied orbitals:                                                448
 Number of molecular orbitals:                                               448

 Number of orbital functions:                                               2720
 Number of independent orbital functions:                                   2720

 Extrapolation method: ASPC


 SCF WAVEFUNCTION OPTIMIZATION

  ----------------------------------- OT ---------------------------------------
  Minimizer      : DIIS                : direct inversion
                                         in the iterative subspace
                                         using   7 DIIS vectors
                                         safer DIIS on
  Preconditioner : FULL_SINGLE_INVERSE : inversion of 
                                         H + eS - 2*(Sc)(c^T*H*c+const)(Sc)^T
  Precond_solver : DEFAULT
  stepsize       :    0.08000000                  energy_gap     :    0.08000000
  eps_taylor     :   0.10000E-15                  max_taylor     :             4
  ----------------------------------- OT ---------------------------------------

  Step     Update method      Time    Convergence         Total energy    Change
  ------------------------------------------------------------------------------
     1 OT DIIS     0.80E-01    4.2     0.00116839     -1636.5905785271 -1.64E+03
     2 OT DIIS     0.80E-01    3.0     0.00064989     -1636.6822582257 -9.17E-02
     3 OT DIIS     0.80E-01    3.0     0.00047154     -1636.7124353477 -3.02E-02
     4 OT DIIS     0.80E-01    3.0     0.00031516     -1636.7261650871 -1.37E-02
     5 OT DIIS     0.80E-01    3.0     0.00018936     -1636.7302487690 -4.08E-03
     6 OT DIIS     0.80E-01    3.0     0.00014018     -1636.7314873124 -1.24E-03
     7 OT DIIS     0.80E-01    3.0     0.00008502     -1636.7326451684 -1.16E-03
     8 OT DIIS     0.80E-01    3.1     0.00007687     -1636.7332871728 -6.42E-04
     9 OT DIIS     0.80E-01    3.1     0.00006872     -1636.7338285494 -5.41E-04
    10 OT DIIS     0.80E-01    3.0     0.00006301     -1636.7343014289 -4.73E-04
    11 OT DIIS     0.80E-01    3.1     0.00005962     -1636.7352313601 -9.30E-04
    12 OT DIIS     0.80E-01    3.0     0.00005521     -1636.7360973686 -8.66E-04
    13 OT DIIS     0.80E-01    3.1     0.00004859     -1636.7371800340 -1.08E-03
    14 OT DIIS     0.80E-01    3.0     0.00004513     -1636.7378248311 -6.45E-04
    15 OT DIIS     0.80E-01    3.0     0.00003722     -1636.7381764923 -3.52E-04
    16 OT DIIS     0.80E-01    3.1     0.00003161     -1636.7384680999 -2.92E-04
    17 OT DIIS     0.80E-01    3.0     0.00003022     -1636.7386100570 -1.42E-04
    18 OT DIIS     0.80E-01    3.0     0.00002806     -1636.7387336490 -1.24E-04
    19 OT DIIS     0.80E-01    3.0     0.00002748     -1636.7388515574 -1.18E-04
    20 OT DIIS     0.80E-01    3.1     0.00002680     -1636.7389658797 -1.14E-04
    21 OT DIIS     0.80E-01    3.1     0.00002578     -1636.7391022883 -1.36E-04
    22 OT DIIS     0.80E-01    3.0     0.00002549     -1636.7392327143 -1.30E-04
    23 OT DIIS     0.80E-01    3.0     0.00002478     -1636.7393569087 -1.24E-04
    24 OT DIIS     0.80E-01    3.1     0.00002403     -1636.7395319388 -1.75E-04
    25 OT DIIS     0.80E-01    3.0     0.00002377     -1636.7397012127 -1.69E-04
    26 OT DIIS     0.80E-01    3.1     0.00002298     -1636.7398986176 -1.97E-04
    27 OT DIIS     0.80E-01    3.0     0.00002260     -1636.7400592395 -1.61E-04
    28 OT DIIS     0.80E-01    3.1     0.00002210     -1636.7402041460 -1.45E-04
    29 OT DIIS     0.80E-01    3.0     0.00002141     -1636.7403278473 -1.24E-04
    30 OT DIIS     0.80E-01    3.0     0.00002127     -1636.7404290174 -1.01E-04
    31 OT DIIS     0.80E-01    3.0     0.00002091     -1636.7405082683 -7.93E-05
    32 OT DIIS     0.80E-01    3.0     0.00002058     -1636.7405928009 -8.45E-05
    33 OT DIIS     0.80E-01    3.0     0.00002047     -1636.7406525549 -5.98E-05
    34 OT DIIS     0.80E-01    3.0     0.00002037     -1636.7407028715 -5.03E-05
    35 OT DIIS     0.80E-01    3.0     0.00002035     -1636.7407268089 -2.39E-05
    36 OT SD       0.80E-01    3.0     0.00002036     -1636.7407307036 -3.89E-06
    37 OT SD       0.80E-01    3.0     0.00002044     -1636.7407711010 -4.04E-05
    38 OT SD       0.80E-01    3.0     0.00002071     -1636.7408116191 -4.05E-05
    39 OT SD       0.80E-01    3.1     0.00002219     -1636.7408517393 -4.01E-05
    40 OT SD       0.80E-01    3.0     0.00003035     -1636.7408873607 -3.56E-05
    41 OT SD       0.80E-01    3.0     0.00006289     -1636.7408888370 -1.48E-06
    42 OT SD       0.80E-01    3.0     0.00016027     -1636.7406432293  2.46E-04
    43 OT DIIS     0.80E-01    3.0     0.00042678     -1636.7386168694  2.03E-03
    44 OT DIIS     0.80E-01    3.0     0.00002019     -1636.7400786675 -1.46E-03
    45 OT SD       0.80E-01    3.0     0.00002045     -1636.7401889208 -1.10E-04
    46 OT SD       0.80E-01    3.1     0.00002673     -1636.7402183347 -2.94E-05
    47 OT SD       0.80E-01    3.0     0.00005234     -1636.7402240173 -5.68E-06
    48 OT DIIS     0.80E-01    3.0     0.00013034     -1636.7400677167  1.56E-04
    49 OT DIIS     0.80E-01    3.0     0.00001859     -1636.7398987735  1.69E-04
    50 OT SD       0.80E-01    3.0     0.00001889     -1636.7400032207 -1.04E-04
    51 OT SD       0.80E-01    3.1     0.00002760     -1636.7400235242 -2.03E-05
    52 OT SD       0.80E-01    3.0     0.00005791     -1636.7400133799  1.01E-05
    53 OT DIIS     0.80E-01    3.1     0.00014167     -1636.7398089361  2.04E-04
    54 OT DIIS     0.80E-01    3.0     0.00001484     -1636.7398257426 -1.68E-05
    55 OT SD       0.80E-01    3.0     0.00001610     -1636.7399399927 -1.14E-04
    56 OT SD       0.80E-01    3.0     0.00002230     -1636.7399536343 -1.36E-05
    57 OT SD       0.80E-01    3.0     0.00004260     -1636.7399521183  1.52E-06
    58 OT DIIS     0.80E-01    3.1     0.00010022     -1636.7398561674  9.60E-05
    59 OT SD       0.80E-01    3.0     0.00001272     -1636.7398631709 -7.00E-06
    60 OT SD       0.80E-01    3.0     0.00001756     -1636.7398737129 -1.05E-05
    61 OT SD       0.80E-01    3.1     0.00003653     -1636.7398724804  1.23E-06
    62 OT DIIS     0.80E-01    3.0     0.00009396     -1636.7397865722  8.59E-05
    63 OT DIIS     0.80E-01    3.1     0.00001109     -1636.7398773656 -9.08E-05
    64 OT DIIS     0.80E-01    3.0     0.00001046     -1636.7399383906 -6.10E-05
    65 OT DIIS     0.80E-01    3.1     0.00001034     -1636.7399586564 -2.03E-05
    66 OT DIIS     0.80E-01    3.1     0.00001021     -1636.7399712550 -1.26E-05
    67 OT DIIS     0.80E-01    3.0     0.00001015     -1636.7400007805 -2.95E-05
    68 OT DIIS     0.80E-01    3.0     0.00000996     -1636.7400493167 -4.85E-05

  *** SCF run converged in    68 steps ***


  Electronic density on regular grids:       -895.9999975961        0.0000024039
  Core density on regular grids:              895.9999999270       -0.0000000730
  Total charge density on r-space grids:        0.0000023308
  Total charge density g-space grids:           0.0000023308

  Overlap energy of the core charge distribution:               0.00006110905727
  Self energy of the core charge distribution:              -3531.67332257831958
  Core Hamiltonian energy:                                   1021.13667009095252
  Hartree energy:                                            1265.30654148414624
  Exchange-correlation energy:                               -390.68065109646784
  Dispersion energy:                                           -0.82934832608523

  Total energy:                                             -1636.74004931671675

  outer SCF iter =    1 RMS gradient =   0.10E-04 energy =      -1636.7400493167
  outer SCF loop converged in   1 iterations or   68 steps


 ENERGY| Total FORCE_EVAL ( QS ) energy [a.u.]:            -1636.740085097925885

 --------  Informations at step =     2 ------------
  Optimization Method        =                 BFGS
  Total Energy               =     -1636.7400850979
  Real energy change         =        -0.1127671061
  Predicted change in energy =        -0.0882423478
  Scaling factor             =         0.0000000000
  Step size                  =         0.0784666148
  Trust radius               =         0.4724315332
  Decrease in energy         =                  YES
  Used time                  =              215.577

  Convergence check :
  Max. step size             =         0.0784666148
  Conv. limit for step size  =         0.0010000000
  Convergence in step size   =                   NO
  RMS step size              =         0.0219691155
  Conv. limit for RMS step   =         0.0015000000
  Convergence in RMS step    =                   NO
  Max. gradient              =         0.0117947208
  Conv. limit for gradients  =         0.0004500000
  Conv. for gradients        =                   NO
  RMS gradient               =         0.0031062925
  Conv. limit for RMS grad.  =         0.0003000000
  Conv. for gradients        =                   NO
 ---------------------------------------------------

 --------------------------
 OPTIMIZATION STEP:      3
 --------------------------

 Number of electrons:                                                        896
 Number of occupied orbitals:                                                448
 Number of molecular orbitals:                                               448

 Number of orbital functions:                                               2720
 Number of independent orbital functions:                                   2720

 Extrapolation method: ASPC


 SCF WAVEFUNCTION OPTIMIZATION

  ----------------------------------- OT ---------------------------------------
  Minimizer      : DIIS                : direct inversion
                                         in the iterative subspace
                                         using   7 DIIS vectors
                                         safer DIIS on
  Preconditioner : FULL_SINGLE_INVERSE : inversion of 
                                         H + eS - 2*(Sc)(c^T*H*c+const)(Sc)^T
  Precond_solver : DEFAULT
  stepsize       :    0.08000000                  energy_gap     :    0.08000000
  eps_taylor     :   0.10000E-15                  max_taylor     :             4
  ----------------------------------- OT ---------------------------------------

  Step     Update method      Time    Convergence         Total energy    Change
  ------------------------------------------------------------------------------
     1 OT DIIS     0.80E-01    4.1     0.00038507     -1636.7346173539 -1.64E+03
     2 OT DIIS     0.80E-01    3.0     0.00023312     -1636.7444077543 -9.79E-03
     3 OT DIIS     0.80E-01    3.0     0.00019424     -1636.7475468194 -3.14E-03
     4 OT DIIS     0.80E-01    3.0     0.00014062     -1636.7495802733 -2.03E-03
     5 OT DIIS     0.80E-01    3.0     0.00009378     -1636.7502985689 -7.18E-04
     6 OT DIIS     0.80E-01    3.0     0.00005704     -1636.7506597977 -3.61E-04
     7 OT DIIS     0.80E-01    3.0     0.00005417     -1636.7509495303 -2.90E-04
     8 OT DIIS     0.80E-01    3.0     0.00004368     -1636.7511584788 -2.09E-04
     9 OT DIIS     0.80E-01    3.0     0.00004025     -1636.7513820768 -2.24E-04
    10 OT DIIS     0.80E-01    3.0     0.00003768     -1636.7516049235 -2.23E-04
    11 OT DIIS     0.80E-01    3.0     0.00003615     -1636.7518589252 -2.54E-04
    12 OT DIIS     0.80E-01    3.0     0.00003229     -1636.7522870006 -4.28E-04
    13 OT DIIS     0.80E-01    3.1     0.00003285     -1636.7525264350 -2.39E-04
    14 OT DIIS     0.80E-01    3.1     0.00002777     -1636.7527401912 -2.14E-04
    15 OT DIIS     0.80E-01    3.1     0.00002500     -1636.7529147331 -1.75E-04
    16 OT DIIS     0.80E-01    3.0     0.00002322     -1636.7530098573 -9.51E-05
    17 OT DIIS     0.80E-01    3.1     0.00002170     -1636.7531293943 -1.20E-04
    18 OT DIIS     0.80E-01    3.0     0.00002112     -1636.7532233017 -9.39E-05
    19 OT DIIS     0.80E-01    3.0     0.00002011     -1636.7533251368 -1.02E-04
    20 OT DIIS     0.80E-01    3.0     0.00001911     -1636.7534190668 -9.39E-05
    21 OT DIIS     0.80E-01    3.0     0.00001929     -1636.7534961453 -7.71E-05
    22 OT DIIS     0.80E-01    3.0     0.00001890     -1636.7535638948 -6.77E-05
    23 OT DIIS     0.80E-01    3.0     0.00001860     -1636.7536325026 -6.86E-05
    24 OT DIIS     0.80E-01    3.1     0.00001826     -1636.7537003300 -6.78E-05
    25 OT DIIS     0.80E-01    3.0     0.00001745     -1636.7537906061 -9.03E-05
    26 OT DIIS     0.80E-01    3.1     0.00001712     -1636.7538482783 -5.77E-05
    27 OT DIIS     0.80E-01    3.1     0.00001674     -1636.7539196444 -7.14E-05
    28 OT DIIS     0.80E-01    3.1     0.00001664     -1636.7539801409 -6.05E-05
    29 OT DIIS     0.80E-01    3.1     0.00001662     -1636.7540153688 -3.52E-05
    30 OT DIIS     0.80E-01    3.1     0.00001662     -1636.7540292322 -1.39E-05
    31 OT SD       0.80E-01    3.1     0.00001662     -1636.7540305930 -1.36E-06
    32 OT SD       0.80E-01    3.1     0.00001667     -1636.7540575098 -2.69E-05
    33 OT SD       0.80E-01    3.1     0.00001691     -1636.7540844730 -2.70E-05
    34 OT SD       0.80E-01    3.1     0.00001833     -1636.7541110713 -2.66E-05
    35 OT SD       0.80E-01    3.1     0.00002679     -1636.7541336561 -2.26E-05
    36 OT SD       0.80E-01    3.1     0.00006109     -1636.7541229304  1.07E-05
    37 OT DIIS     0.80E-01    3.0     0.00016677     -1636.7538445038  2.78E-04
    38 OT SD       0.80E-01    3.0     0.00001577     -1636.7536875669  1.57E-04
    39 OT SD       0.80E-01    3.0     0.00001579     -1636.7537111682 -2.36E-05
    40 OT SD       0.80E-01    3.1     0.00001715     -1636.7537337208 -2.26E-05
    41 OT SD       0.80E-01    3.0     0.00002532     -1636.7537520288 -1.83E-05
    42 OT SD       0.80E-01    3.0     0.00005771     -1636.7537401292  1.19E-05
    43 OT DIIS     0.80E-01    3.1     0.00015762     -1636.7534896466  2.50E-04
    44 OT SD       0.80E-01    3.1     0.00001503     -1636.7539432872 -4.54E-04
    45 OT SD       0.80E-01    3.0     0.00001514     -1636.7539652944 -2.20E-05
    46 OT SD       0.80E-01    3.1     0.00001565     -1636.7539873037 -2.20E-05
    47 OT SD       0.80E-01    3.1     0.00001884     -1636.7540083076 -2.10E-05
    48 OT SD       0.80E-01    3.1     0.00003488     -1636.7540199751 -1.17E-05
    49 OT SD       0.80E-01    3.0     0.00009011     -1636.7539551966  6.48E-05
    50 OT DIIS     0.80E-01    3.1     0.00025276     -1636.7532715836  6.84E-04
    51 OT DIIS     0.80E-01    3.0     0.00001470     -1636.7535811550 -3.10E-04
    52 OT DIIS     0.80E-01    3.1     0.00001455     -1636.7535880537 -6.90E-06
    53 OT SD       0.80E-01    3.1     0.00001440     -1636.7536076300 -1.96E-05
    54 OT SD       0.80E-01    3.1     0.00001447     -1636.7536273896 -1.98E-05
    55 OT SD       0.80E-01    3.0     0.00001527     -1636.7536465333 -1.91E-05
    56 OT DIIS     0.80E-01    3.1     0.00001982     -1636.7536635831 -1.70E-05
    57 OT DIIS     0.80E-01    3.0     0.00001385     -1636.7538293230 -1.66E-04
    58 OT DIIS     0.80E-01    3.0     0.00001363     -1636.7538862854 -5.70E-05
    59 OT DIIS     0.80E-01    3.1     0.00001359     -1636.7539007656 -1.45E-05
    60 OT DIIS     0.80E-01    3.1     0.00001362     -1636.7539022358 -1.47E-06
    61 OT SD       0.80E-01    3.0     0.00001363     -1636.7539044413 -2.21E-06
    62 OT SD       0.80E-01    3.0     0.00001377     -1636.7539224886 -1.80E-05
    63 OT SD       0.80E-01    3.0     0.00001452     -1636.7539404664 -1.80E-05
    64 OT SD       0.80E-01    3.1     0.00001897     -1636.7539569678 -1.65E-05
    65 OT SD       0.80E-01    3.0     0.00003840     -1636.7539611337 -4.17E-06
    66 OT SD       0.80E-01    3.0     0.00009968     -1636.7538702641  9.09E-05
    67 OT DIIS     0.80E-01    3.0     0.00027276     -1636.7530540490  8.16E-04
    68 OT DIIS     0.80E-01    3.0     0.00001345     -1636.7535473308 -4.93E-04
    69 OT DIIS     0.80E-01    3.1     0.00001323     -1636.7535576181 -1.03E-05
    70 OT DIIS     0.80E-01    3.0     0.00001312     -1636.7535648662 -7.25E-06
    71 OT DIIS     0.80E-01    3.0     0.00001306     -1636.7536044938 -3.96E-05
    72 OT SD       0.80E-01    3.1     0.00001302     -1636.7536341232 -2.96E-05
    73 OT DIIS     0.80E-01    3.1     0.00001375     -1636.7536494894 -1.54E-05
    74 OT DIIS     0.80E-01    3.0     0.00001271     -1636.7537343354 -8.48E-05
    75 OT DIIS     0.80E-01    3.1     0.00001239     -1636.7538028349 -6.85E-05
    76 OT DIIS     0.80E-01    3.0     0.00001228     -1636.7538693732 -6.65E-05
    77 OT DIIS     0.80E-01    3.0     0.00001222     -1636.7538844539 -1.51E-05
    78 OT DIIS     0.80E-01    3.0     0.00001223     -1636.7538903377 -5.88E-06
    79 OT DIIS     0.80E-01    3.0     0.00001223     -1636.7538981572 -7.82E-06
    80 OT SD       0.80E-01    3.0     0.00001223     -1636.7538996328 -1.48E-06
    81 OT DIIS     0.80E-01    3.0     0.00001233     -1636.7539142041 -1.46E-05
    82 OT DIIS     0.80E-01    3.0     0.00001229     -1636.7539204369 -6.23E-06
    83 OT DIIS     0.80E-01    3.0     0.00001214     -1636.7539570473 -3.66E-05
    84 OT DIIS     0.80E-01    3.0     0.00001213     -1636.7539903091 -3.33E-05
    85 OT DIIS     0.80E-01    3.1     0.00001205     -1636.7540260507 -3.57E-05
    86 OT DIIS     0.80E-01    3.1     0.00001202     -1636.7540301267 -4.08E-06
    87 OT DIIS     0.80E-01    3.1     0.00001204     -1636.7540474663 -1.73E-05
    88 OT DIIS     0.80E-01    3.0     0.00001217     -1636.7540511331 -3.67E-06
    89 OT DIIS     0.80E-01    3.0     0.00001204     -1636.7540638917 -1.28E-05
    90 OT SD       0.80E-01    3.1     0.00001206     -1636.7540671215 -3.23E-06
    91 OT SD       0.80E-01    3.0     0.00001248     -1636.7540810775 -1.40E-05
    92 OT SD       0.80E-01    3.1     0.00001475     -1636.7540945270 -1.34E-05
    93 OT SD       0.80E-01    3.1     0.00002574     -1636.7541031886 -8.66E-06
    94 OT SD       0.80E-01    3.0     0.00006344     -1636.7540743837  2.88E-05
    95 OT DIIS     0.80E-01    3.0     0.00017350     -1636.7537544199  3.20E-04
    96 OT SD       0.80E-01    3.1     0.00001141     -1636.7537606651 -6.25E-06
    97 OT SD       0.80E-01    3.0     0.00001571     -1636.7537694146 -8.75E-06
    98 OT SD       0.80E-01    3.0     0.00003354     -1636.7537680594  1.36E-06
    99 OT DIIS     0.80E-01    3.1     0.00008856     -1636.7536914098  7.66E-05
   100 OT DIIS     0.80E-01    3.0     0.00001008     -1636.7536856701  5.74E-06
   101 OT SD       0.80E-01    3.0     0.00001032     -1636.7537281795 -4.25E-05
   102 OT SD       0.80E-01    3.1     0.00001343     -1636.7537359826 -7.80E-06
   103 OT SD       0.80E-01    3.0     0.00002601     -1636.7537379925 -2.01E-06
   104 OT DIIS     0.80E-01    3.1     0.00006431     -1636.7537005324  3.75E-05
   105 OT DIIS     0.80E-01    3.0     0.00000918     -1636.7538068521 -1.06E-04

  *** SCF run converged in   105 steps ***


  Electronic density on regular grids:       -895.9999974521        0.0000025479
  Core density on regular grids:              895.9999999265       -0.0000000735
  Total charge density on r-space grids:        0.0000024745
  Total charge density g-space grids:           0.0000024745

  Overlap energy of the core charge distribution:               0.00005181036333
  Self energy of the core charge distribution:              -3531.67332257831958
  Core Hamiltonian energy:                                   1019.69670311715663
  Hartree energy:                                            1266.29183014164346
  Exchange-correlation energy:                               -390.23966675828871
  Dispersion energy:                                           -0.82940258460629

  Total energy:                                             -1636.75380685205096

  outer SCF iter =    1 RMS gradient =   0.92E-05 energy =      -1636.7538068521
  outer SCF loop converged in   1 iterations or  105 steps


 ENERGY| Total FORCE_EVAL ( QS ) energy [a.u.]:            -1636.753875109837736

 --------  Informations at step =     3 ------------
  Optimization Method        =                 BFGS
  Total Energy               =     -1636.7538751098
  Real energy change         =        -0.0137900119
  Predicted change in energy =        -0.0103491482
  Scaling factor             =         0.0000000000
  Step size                  =         0.0283901429
  Trust radius               =         0.4724315332
  Decrease in energy         =                  YES
  Used time                  =              328.707

  Convergence check :
  Max. step size             =         0.0283901429
  Conv. limit for step size  =         0.0010000000
  Convergence in step size   =                   NO
  RMS step size              =         0.0089094331
  Conv. limit for RMS step   =         0.0015000000
  Convergence in RMS step    =                   NO
  Max. gradient              =         0.0027793708
  Conv. limit for gradients  =         0.0004500000
  Conv. for gradients        =                   NO
  RMS gradient               =         0.0003963075
  Conv. limit for RMS grad.  =         0.0003000000
  Conv. for gradients        =                   NO
 ---------------------------------------------------

 --------------------------
 OPTIMIZATION STEP:      4
 --------------------------

 Number of electrons:                                                        896
 Number of occupied orbitals:                                                448
 Number of molecular orbitals:                                               448

 Number of orbital functions:                                               2720
 Number of independent orbital functions:                                   2720

 Extrapolation method: ASPC


 SCF WAVEFUNCTION OPTIMIZATION

  ----------------------------------- OT ---------------------------------------
  Minimizer      : DIIS                : direct inversion
                                         in the iterative subspace
                                         using   7 DIIS vectors
                                         safer DIIS on
  Preconditioner : FULL_SINGLE_INVERSE : inversion of 
                                         H + eS - 2*(Sc)(c^T*H*c+const)(Sc)^T
  Precond_solver : DEFAULT
  stepsize       :    0.08000000                  energy_gap     :    0.08000000
  eps_taylor     :   0.10000E-15                  max_taylor     :             4
  ----------------------------------- OT ---------------------------------------

  Step     Update method      Time    Convergence         Total energy    Change
  ------------------------------------------------------------------------------
     1 OT DIIS     0.80E-01    4.2     0.00021282     -1636.7468109305 -1.64E+03
     2 OT DIIS     0.80E-01    3.0     0.00013600     -1636.7495604798 -2.75E-03
     3 OT DIIS     0.80E-01    3.0     0.00010629     -1636.7504033965 -8.43E-04
     4 OT DIIS     0.80E-01    3.0     0.00008654     -1636.7510372354 -6.34E-04
     5 OT DIIS     0.80E-01    3.0     0.00005205     -1636.7513169190 -2.80E-04
     6 OT DIIS     0.80E-01    3.0     0.00003726     -1636.7514704438 -1.54E-04
     7 OT DIIS     0.80E-01    3.0     0.00003477     -1636.7515997575 -1.29E-04
     8 OT DIIS     0.80E-01    2.9     0.00003188     -1636.7517230459 -1.23E-04
     9 OT DIIS     0.80E-01    2.9     0.00003046     -1636.7518442623 -1.21E-04
    10 OT DIIS     0.80E-01    3.0     0.00002910     -1636.7520060081 -1.62E-04
    11 OT DIIS     0.80E-01    2.9     0.00002916     -1636.7522219383 -2.16E-04
    12 OT DIIS     0.80E-01    3.0     0.00002654     -1636.7525657598 -3.44E-04
    13 OT DIIS     0.80E-01    3.0     0.00002733     -1636.7528376407 -2.72E-04
    14 OT DIIS     0.80E-01    3.0     0.00002418     -1636.7530855331 -2.48E-04
    15 OT DIIS     0.80E-01    3.1     0.00002300     -1636.7533046578 -2.19E-04
    16 OT DIIS     0.80E-01    3.0     0.00002217     -1636.7534619521 -1.57E-04
    17 OT DIIS     0.80E-01    3.0     0.00002117     -1636.7536440014 -1.82E-04
    18 OT DIIS     0.80E-01    3.0     0.00002054     -1636.7537742447 -1.30E-04
    19 OT DIIS     0.80E-01    3.0     0.00002021     -1636.7539214050 -1.47E-04
    20 OT DIIS     0.80E-01    3.1     0.00001929     -1636.7540641235 -1.43E-04
    21 OT DIIS     0.80E-01    3.0     0.00001910     -1636.7542259659 -1.62E-04
    22 OT DIIS     0.80E-01    3.0     0.00001841     -1636.7544055881 -1.80E-04
    23 OT DIIS     0.80E-01    3.0     0.00001709     -1636.7546103001 -2.05E-04
    24 OT DIIS     0.80E-01    3.1     0.00001593     -1636.7547529772 -1.43E-04
    25 OT DIIS     0.80E-01    3.1     0.00001367     -1636.7548315862 -7.86E-05
    26 OT DIIS     0.80E-01    3.0     0.00001261     -1636.7548746159 -4.30E-05
    27 OT DIIS     0.80E-01    3.1     0.00001267     -1636.7549170836 -4.25E-05
    28 OT DIIS     0.80E-01    3.0     0.00001127     -1636.7549539933 -3.69E-05
    29 OT DIIS     0.80E-01    3.0     0.00001072     -1636.7549905821 -3.66E-05
    30 OT DIIS     0.80E-01    3.0     0.00001006     -1636.7550152449 -2.47E-05
    31 OT DIIS     0.80E-01    3.0     0.00000948     -1636.7550342923 -1.90E-05

  *** SCF run converged in    31 steps ***


  Electronic density on regular grids:       -895.9999972677        0.0000027323
  Core density on regular grids:              895.9999999263       -0.0000000737
  Total charge density on r-space grids:        0.0000026586
  Total charge density g-space grids:           0.0000026586

  Overlap energy of the core charge distribution:               0.00005102432071
  Self energy of the core charge distribution:              -3531.67332257831958
  Core Hamiltonian energy:                                   1019.53424560205247
  Hartree energy:                                            1266.40434563164308
  Exchange-correlation energy:                               -390.19094814149548
  Dispersion energy:                                           -0.82940583045445

  Total energy:                                             -1636.75503429225319

  outer SCF iter =    1 RMS gradient =   0.95E-05 energy =      -1636.7550342923
  outer SCF loop converged in   1 iterations or   31 steps


 ENERGY| Total FORCE_EVAL ( QS ) energy [a.u.]:            -1636.755052371709553

 --------  Informations at step =     4 ------------
  Optimization Method        =                 BFGS
  Total Energy               =     -1636.7550523717
  Real energy change         =        -0.0011772619
  Predicted change in energy =        -0.0002099491
  Scaling factor             =         0.0000000000
  Step size                  =         0.0070665127
  Trust radius               =         0.4724315332
  Decrease in energy         =                  YES
  Used time                  =              102.565

  Convergence check :
  Max. step size             =         0.0070665127
  Conv. limit for step size  =         0.0010000000
  Convergence in step size   =                   NO
  RMS step size              =         0.0016771165
  Conv. limit for RMS step   =         0.0015000000
  Convergence in RMS step    =                   NO
  Max. gradient              =         0.0010603163
  Conv. limit for gradients  =         0.0004500000
  Conv. for gradients        =                   NO
  RMS gradient               =         0.0001369243
  Conv. limit for RMS grad.  =         0.0003000000
  Conv. in RMS gradients     =                  YES
 ---------------------------------------------------

 --------------------------
 OPTIMIZATION STEP:      5
 --------------------------

 Number of electrons:                                                        896
 Number of occupied orbitals:                                                448
 Number of molecular orbitals:                                               448

 Number of orbital functions:                                               2720
 Number of independent orbital functions:                                   2720

 Extrapolation method: ASPC


 SCF WAVEFUNCTION OPTIMIZATION

  ----------------------------------- OT ---------------------------------------
  Minimizer      : DIIS                : direct inversion
                                         in the iterative subspace
                                         using   7 DIIS vectors
                                         safer DIIS on
  Preconditioner : FULL_SINGLE_INVERSE : inversion of 
                                         H + eS - 2*(Sc)(c^T*H*c+const)(Sc)^T
  Precond_solver : DEFAULT
  stepsize       :    0.08000000                  energy_gap     :    0.08000000
  eps_taylor     :   0.10000E-15                  max_taylor     :             4
  ----------------------------------- OT ---------------------------------------

  Step     Update method      Time    Convergence         Total energy    Change
  ------------------------------------------------------------------------------
     1 OT DIIS     0.80E-01    3.9     0.00017502     -1636.7475092392 -1.64E+03
     2 OT DIIS     0.80E-01    2.9     0.00013293     -1636.7492297817 -1.72E-03
     3 OT DIIS     0.80E-01    3.0     0.00009612     -1636.7498819428 -6.52E-04
     4 OT DIIS     0.80E-01    3.0     0.00008935     -1636.7505291221 -6.47E-04
     5 OT DIIS     0.80E-01    3.0     0.00006131     -1636.7509156751 -3.87E-04
     6 OT DIIS     0.80E-01    3.0     0.00005216     -1636.7512325099 -3.17E-04
     7 OT DIIS     0.80E-01    2.9     0.00005001     -1636.7516207218 -3.88E-04
     8 OT DIIS     0.80E-01    3.0     0.00004539     -1636.7521129928 -4.92E-04
     9 OT DIIS     0.80E-01    3.1     0.00003976     -1636.7526421905 -5.29E-04
    10 OT DIIS     0.80E-01    3.1     0.00003444     -1636.7532350796 -5.93E-04
    11 OT DIIS     0.80E-01    3.1     0.00003391     -1636.7537172039 -4.82E-04
    12 OT DIIS     0.80E-01    3.0     0.00002563     -1636.7541169820 -4.00E-04
    13 OT DIIS     0.80E-01    3.0     0.00002675     -1636.7542726811 -1.56E-04
    14 OT DIIS     0.80E-01    3.0     0.00002074     -1636.7543673469 -9.47E-05
    15 OT DIIS     0.80E-01    3.1     0.00001890     -1636.7544324805 -6.51E-05
    16 OT DIIS     0.80E-01    3.0     0.00001789     -1636.7544850623 -5.26E-05
    17 OT DIIS     0.80E-01    3.1     0.00001668     -1636.7545458704 -6.08E-05
    18 OT DIIS     0.80E-01    3.0     0.00001600     -1636.7546006309 -5.48E-05
    19 OT DIIS     0.80E-01    3.1     0.00001567     -1636.7546507002 -5.01E-05
    20 OT DIIS     0.80E-01    3.1     0.00001499     -1636.7546953371 -4.46E-05
    21 OT DIIS     0.80E-01    3.0     0.00001492     -1636.7547401115 -4.48E-05
    22 OT DIIS     0.80E-01    3.1     0.00001473     -1636.7547738623 -3.38E-05
    23 OT DIIS     0.80E-01    3.0     0.00001450     -1636.7548108479 -3.70E-05
    24 OT DIIS     0.80E-01    3.0     0.00001442     -1636.7548448752 -3.40E-05
    25 OT DIIS     0.80E-01    3.0     0.00001427     -1636.7548749618 -3.01E-05
    26 OT DIIS     0.80E-01    3.1     0.00001424     -1636.7548950742 -2.01E-05
    27 OT DIIS     0.80E-01    3.0     0.00001422     -1636.7549080309 -1.30E-05
    28 OT SD       0.80E-01    3.1     0.00001422     -1636.7549122009 -4.17E-06
    29 OT SD       0.80E-01    3.1     0.00001425     -1636.7549319155 -1.97E-05
    30 OT SD       0.80E-01    3.1     0.00001432     -1636.7549517112 -1.98E-05
    31 OT SD       0.80E-01    3.0     0.00001454     -1636.7549715841 -1.99E-05
    32 OT SD       0.80E-01    3.0     0.00001563     -1636.7549912720 -1.97E-05
    33 OT SD       0.80E-01    3.0     0.00002114     -1636.7550088457 -1.76E-05
    34 OT SD       0.80E-01    3.0     0.00004201     -1636.7550114282 -2.58E-06
    35 OT SD       0.80E-01    3.0     0.00010220     -1636.7549138410  9.76E-05
    36 OT DIIS     0.80E-01    3.0     0.00026068     -1636.7541512654  7.63E-04
    37 OT SD       0.80E-01    3.1     0.00001280     -1636.7546789883 -5.28E-04
    38 OT SD       0.80E-01    3.1     0.00001248     -1636.7546937589 -1.48E-05
    39 OT SD       0.80E-01    3.0     0.00001274     -1636.7547076689 -1.39E-05
    40 OT SD       0.80E-01    3.0     0.00001409     -1636.7547208135 -1.31E-05
    41 OT SD       0.80E-01    3.0     0.00001930     -1636.7547317308 -1.09E-05
    42 OT DIIS     0.80E-01    3.0     0.00003650     -1636.7547313557  3.75E-07
    43 OT DIIS     0.80E-01    3.0     0.00001162     -1636.7548019895 -7.06E-05
    44 OT DIIS     0.80E-01    3.1     0.00001160     -1636.7548222526 -2.03E-05
    45 OT DIIS     0.80E-01    3.0     0.00001158     -1636.7548267986 -4.55E-06
    46 OT SD       0.80E-01    3.1     0.00001158     -1636.7548307063 -3.91E-06
    47 OT SD       0.80E-01    3.1     0.00001160     -1636.7548437909 -1.31E-05
    48 OT SD       0.80E-01    3.1     0.00001165     -1636.7548569154 -1.31E-05
    49 OT SD       0.80E-01    3.1     0.00001181     -1636.7548700702 -1.32E-05
    50 OT SD       0.80E-01    3.1     0.00001262     -1636.7548830884 -1.30E-05
    51 OT SD       0.80E-01    3.1     0.00001687     -1636.7548947655 -1.17E-05
    52 OT SD       0.80E-01    3.0     0.00003342     -1636.7548969631 -2.20E-06
    53 OT SD       0.80E-01    3.1     0.00008185     -1636.7548348965  6.21E-05
    54 OT DIIS     0.80E-01    3.0     0.00021066     -1636.7543385696  4.96E-04
    55 OT SD       0.80E-01    3.0     0.00001096     -1636.7547028226 -3.64E-04
    56 OT SD       0.80E-01    3.0     0.00001074     -1636.7547140449 -1.12E-05
    57 OT SD       0.80E-01    3.1     0.00001099     -1636.7547247564 -1.07E-05
    58 OT SD       0.80E-01    3.0     0.00001262     -1636.7547348175 -1.01E-05
    59 OT SD       0.80E-01    3.0     0.00001973     -1636.7547420818 -7.26E-06
    60 OT DIIS     0.80E-01    3.1     0.00004254     -1636.7547327460  9.34E-06
    61 OT DIIS     0.80E-01    3.0     0.00001031     -1636.7547912264 -5.85E-05
    62 OT DIIS     0.80E-01    3.1     0.00001028     -1636.7548153011 -2.41E-05
    63 OT DIIS     0.80E-01    3.0     0.00001028     -1636.7548200863 -4.79E-06
    64 OT SD       0.80E-01    3.0     0.00001028     -1636.7548223392 -2.25E-06
    65 OT SD       0.80E-01    3.1     0.00001029     -1636.7548326394 -1.03E-05
    66 OT SD       0.80E-01    3.0     0.00001033     -1636.7548429638 -1.03E-05
    67 OT SD       0.80E-01    3.0     0.00001045     -1636.7548533037 -1.03E-05
    68 OT SD       0.80E-01    3.1     0.00001112     -1636.7548635331 -1.02E-05
    69 OT SD       0.80E-01    3.1     0.00001481     -1636.7548727316 -9.20E-06
    70 OT SD       0.80E-01    3.1     0.00002949     -1636.7548745285 -1.80E-06
    71 OT SD       0.80E-01    3.0     0.00007306     -1636.7548250600  4.95E-05
    72 OT DIIS     0.80E-01    3.1     0.00019008     -1636.7544219224  4.03E-04
    73 OT SD       0.80E-01    3.1     0.00000981     -1636.7547368041 -3.15E-04

  *** SCF run converged in    73 steps ***


  Electronic density on regular grids:       -895.9999972586        0.0000027414
  Core density on regular grids:              895.9999999262       -0.0000000738
  Total charge density on r-space grids:        0.0000026676
  Total charge density g-space grids:           0.0000026676

  Overlap energy of the core charge distribution:               0.00005098484408
  Self energy of the core charge distribution:              -3531.67332257831958
  Core Hamiltonian energy:                                   1019.51033938839475
  Hartree energy:                                            1266.42065738309543
  Exchange-correlation energy:                               -390.18305885687806
  Dispersion energy:                                           -0.82940312519530

  Total energy:                                             -1636.75473680405867

  outer SCF iter =    1 RMS gradient =   0.98E-05 energy =      -1636.7547368041
  outer SCF loop converged in   1 iterations or   73 steps


 ENERGY| Total FORCE_EVAL ( QS ) energy [a.u.]:            -1636.754745844140189

 --------  Informations at step =     5 ------------
  Optimization Method        =                 BFGS
  Total Energy               =     -1636.7547458441
  Real energy change         =         0.0003065276
  Predicted change in energy =        -0.0000436951
  Scaling factor             =         0.0000000000
  Step size                  =         0.0052344734
  Trust radius               =         0.4724315332
  Decrease in energy         =                   NO
  Used time                  =              231.361

  Convergence check :
  Max. step size             =         0.0052344734
  Conv. limit for step size  =         0.0010000000
  Convergence in step size   =                   NO
  RMS step size              =         0.0011350112
  Conv. limit for RMS step   =         0.0015000000
  Convergence in RMS step    =                  YES
  Max. gradient              =         0.0002963290
  Conv. limit for gradients  =         0.0004500000
  Conv. in gradients         =                  YES
  RMS gradient               =         0.0000819199
  Conv. limit for RMS grad.  =         0.0003000000
  Conv. in RMS gradients     =                  YES
 ---------------------------------------------------

 --------------------------
 OPTIMIZATION STEP:      6
 --------------------------

 Number of electrons:                                                        896
 Number of occupied orbitals:                                                448
 Number of molecular orbitals:                                               448

 Number of orbital functions:                                               2720
 Number of independent orbital functions:                                   2720

 Extrapolation method: ASPC


 SCF WAVEFUNCTION OPTIMIZATION

  ----------------------------------- OT ---------------------------------------
  Minimizer      : DIIS                : direct inversion
                                         in the iterative subspace
                                         using   7 DIIS vectors
                                         safer DIIS on
  Preconditioner : FULL_SINGLE_INVERSE : inversion of 
                                         H + eS - 2*(Sc)(c^T*H*c+const)(Sc)^T
  Precond_solver : DEFAULT
  stepsize       :    0.08000000                  energy_gap     :    0.08000000
  eps_taylor     :   0.10000E-15                  max_taylor     :             4
  ----------------------------------- OT ---------------------------------------

  Step     Update method      Time    Convergence         Total energy    Change
  ------------------------------------------------------------------------------
     1 OT DIIS     0.80E-01    3.8     0.00011905     -1636.7502775974 -1.64E+03
     2 OT DIIS     0.80E-01    3.0     0.00010063     -1636.7509830341 -7.05E-04
     3 OT DIIS     0.80E-01    3.0     0.00006409     -1636.7513125000 -3.29E-04
     4 OT DIIS     0.80E-01    3.0     0.00006760     -1636.7516278702 -3.15E-04
     5 OT DIIS     0.80E-01    2.9     0.00004260     -1636.7518630484 -2.35E-04
     6 OT DIIS     0.80E-01    3.0     0.00003749     -1636.7520511055 -1.88E-04
     7 OT DIIS     0.80E-01    3.0     0.00003462     -1636.7522816890 -2.31E-04
     8 OT DIIS     0.80E-01    3.0     0.00003254     -1636.7524981695 -2.16E-04
     9 OT DIIS     0.80E-01    3.0     0.00002985     -1636.7526738765 -1.76E-04
    10 OT DIIS     0.80E-01    3.0     0.00002868     -1636.7528573008 -1.83E-04
    11 OT DIIS     0.80E-01    3.0     0.00002727     -1636.7530597211 -2.02E-04
    12 OT DIIS     0.80E-01    3.0     0.00002517     -1636.7534324504 -3.73E-04
    13 OT DIIS     0.80E-01    3.0     0.00002644     -1636.7536155888 -1.83E-04
    14 OT DIIS     0.80E-01    3.0     0.00002196     -1636.7538158088 -2.00E-04
    15 OT DIIS     0.80E-01    3.1     0.00002087     -1636.7539297910 -1.14E-04
    16 OT DIIS     0.80E-01    3.1     0.00002036     -1636.7540083581 -7.86E-05
    17 OT DIIS     0.80E-01    3.1     0.00001985     -1636.7540765426 -6.82E-05
    18 OT DIIS     0.80E-01    3.1     0.00001969     -1636.7541327298 -5.62E-05
    19 OT DIIS     0.80E-01    3.1     0.00001943     -1636.7541780501 -4.53E-05
    20 OT DIIS     0.80E-01    3.0     0.00001937     -1636.7542178691 -3.98E-05
    21 OT SD       0.80E-01    3.1     0.00001936     -1636.7542300206 -1.22E-05
    22 OT SD       0.80E-01    3.1     0.00001941     -1636.7542665998 -3.66E-05
    23 OT SD       0.80E-01    3.1     0.00001947     -1636.7543033439 -3.67E-05
    24 OT SD       0.80E-01    3.0     0.00001961     -1636.7543402804 -3.69E-05
    25 OT SD       0.80E-01    3.0     0.00002010     -1636.7543772871 -3.70E-05
    26 OT SD       0.80E-01    3.1     0.00002269     -1636.7544133434 -3.61E-05
    27 OT SD       0.80E-01    3.1     0.00003483     -1636.7544416575 -2.83E-05
    28 OT SD       0.80E-01    3.0     0.00007560     -1636.7544180427  2.36E-05
    29 OT SD       0.80E-01    3.1     0.00018685     -1636.7540555631  3.62E-04
    30 OT DIIS     0.80E-01    3.0     0.00047380     -1636.7514902709  2.57E-03
    31 OT DIIS     0.80E-01    3.0     0.00001843     -1636.7534367661 -1.95E-03
    32 OT SD       0.80E-01    3.1     0.00001804     -1636.7535346770 -9.79E-05
    33 OT SD       0.80E-01    3.1     0.00002015     -1636.7535626030 -2.79E-05
    34 OT SD       0.80E-01    3.1     0.00003054     -1636.7535838740 -2.13E-05
    35 OT SD       0.80E-01    3.1     0.00006605     -1636.7535652496  1.86E-05
    36 OT DIIS     0.80E-01    3.1     0.00016519     -1636.7532825597  2.83E-04
    37 OT DIIS     0.80E-01    3.0     0.00001670     -1636.7537439453 -4.61E-04
    38 OT DIIS     0.80E-01    3.0     0.00001654     -1636.7538029821 -5.90E-05
    39 OT DIIS     0.80E-01    3.0     0.00001649     -1636.7538174080 -1.44E-05
    40 OT DIIS     0.80E-01    3.0     0.00001608     -1636.7538514676 -3.41E-05
    41 OT DIIS     0.80E-01    3.1     0.00001617     -1636.7538785157 -2.70E-05
    42 OT DIIS     0.80E-01    3.0     0.00001595     -1636.7539190008 -4.05E-05
    43 OT SD       0.80E-01    3.1     0.00001594     -1636.7539358733 -1.69E-05
    44 OT SD       0.80E-01    3.0     0.00001601     -1636.7539606574 -2.48E-05
    45 OT SD       0.80E-01    3.0     0.00001620     -1636.7539855646 -2.49E-05
    46 OT SD       0.80E-01    3.1     0.00001701     -1636.7540103945 -2.48E-05
    47 OT SD       0.80E-01    3.1     0.00002114     -1636.7540336621 -2.33E-05
    48 OT SD       0.80E-01    3.0     0.00003805     -1636.7540456164 -1.20E-05
    49 OT SD       0.80E-01    3.0     0.00008929     -1636.7539823551  6.33E-05
    50 OT DIIS     0.80E-01    3.0     0.00022599     -1636.7534211940  5.61E-04
    51 OT SD       0.80E-01    3.1     0.00001467     -1636.7533186490  1.03E-04
    52 OT SD       0.80E-01    3.0     0.00001563     -1636.7533368744 -1.82E-05
    53 OT SD       0.80E-01    3.1     0.00002133     -1636.7533518736 -1.50E-05
    54 OT SD       0.80E-01    3.1     0.00004171     -1636.7533514885  3.85E-07
    55 OT DIIS     0.80E-01    3.1     0.00009920     -1636.7532567961  9.47E-05
    56 OT DIIS     0.80E-01    3.1     0.00001320     -1636.7532222487  3.45E-05
    57 OT SD       0.80E-01    3.1     0.00001306     -1636.7533353407 -1.13E-04
    58 OT DIIS     0.80E-01    3.0     0.00001611     -1636.7533486680 -1.33E-05
    59 OT DIIS     0.80E-01    3.1     0.00001187     -1636.7533727704 -2.41E-05
    60 OT DIIS     0.80E-01    3.1     0.00001190     -1636.7533772551 -4.48E-06
    61 OT DIIS     0.80E-01    3.1     0.00001128     -1636.7534115222 -3.43E-05
    62 OT DIIS     0.80E-01    3.1     0.00001123     -1636.7534202173 -8.70E-06
    63 OT DIIS     0.80E-01    3.0     0.00001077     -1636.7534274563 -7.24E-06
    64 OT DIIS     0.80E-01    3.0     0.00001064     -1636.7534581893 -3.07E-05
    65 OT DIIS     0.80E-01    3.1     0.00001054     -1636.7534728952 -1.47E-05
    66 OT DIIS     0.80E-01    3.0     0.00001022     -1636.7534941177 -2.12E-05
    67 OT DIIS     0.80E-01    3.0     0.00001017     -1636.7535208298 -2.67E-05
    68 OT DIIS     0.80E-01    3.0     0.00001008     -1636.7535487610 -2.79E-05
    69 OT DIIS     0.80E-01    3.0     0.00001004     -1636.7535655040 -1.67E-05
    70 OT DIIS     0.80E-01    3.0     0.00000995     -1636.7535788680 -1.34E-05

  *** SCF run converged in    70 steps ***


  Electronic density on regular grids:       -895.9999973304        0.0000026696
  Core density on regular grids:              895.9999999262       -0.0000000738
  Total charge density on r-space grids:        0.0000025958
  Total charge density g-space grids:           0.0000025958

  Overlap energy of the core charge distribution:               0.00005111488372
  Self energy of the core charge distribution:              -3531.67332257831958
  Core Hamiltonian energy:                                   1019.50615335171733
  Hartree energy:                                            1266.42656590045522
  Exchange-correlation energy:                               -390.18362771242511
  Dispersion energy:                                           -0.82939894428515

  Total energy:                                             -1636.75357886797360

  outer SCF iter =    1 RMS gradient =   0.99E-05 energy =      -1636.7535788680
  outer SCF loop converged in   1 iterations or   70 steps


 ENERGY| Total FORCE_EVAL ( QS ) energy [a.u.]:            -1636.753597564120128

 --------  Informations at step =     6 ------------
  Optimization Method        =                 BFGS
  Total Energy               =     -1636.7535975641
  Real energy change         =         0.0011482800
  Predicted change in energy =        -0.0000245508
  Scaling factor             =         0.0000000000
  Step size                  =         0.0056944224
  Trust radius               =         0.4724315332
  Decrease in energy         =                   NO
  Used time                  =              221.890

  Convergence check :
  Max. step size             =         0.0056944224
  Conv. limit for step size  =         0.0010000000
  Convergence in step size   =                   NO
  RMS step size              =         0.0011557850
  Conv. limit for RMS step   =         0.0015000000
  Convergence in RMS step    =                  YES
  Max. gradient              =         0.0003196645
  Conv. limit for gradients  =         0.0004500000
  Conv. in gradients         =                  YES
  RMS gradient               =         0.0000653914
  Conv. limit for RMS grad.  =         0.0003000000
  Conv. in RMS gradients     =                  YES
 ---------------------------------------------------

 --------------------------
 OPTIMIZATION STEP:      7
 --------------------------

 Number of electrons:                                                        896
 Number of occupied orbitals:                                                448
 Number of molecular orbitals:                                               448

 Number of orbital functions:                                               2720
 Number of independent orbital functions:                                   2720

 Extrapolation method: ASPC


 SCF WAVEFUNCTION OPTIMIZATION

  ----------------------------------- OT ---------------------------------------
  Minimizer      : DIIS                : direct inversion
                                         in the iterative subspace
                                         using   7 DIIS vectors
                                         safer DIIS on
  Preconditioner : FULL_SINGLE_INVERSE : inversion of 
                                         H + eS - 2*(Sc)(c^T*H*c+const)(Sc)^T
  Precond_solver : DEFAULT
  stepsize       :    0.08000000                  energy_gap     :    0.08000000
  eps_taylor     :   0.10000E-15                  max_taylor     :             4
  ----------------------------------- OT ---------------------------------------

  Step     Update method      Time    Convergence         Total energy    Change
  ------------------------------------------------------------------------------
     1 OT DIIS     0.80E-01    4.0     0.00009903     -1636.7510228825 -1.64E+03
     2 OT DIIS     0.80E-01    3.0     0.00007994     -1636.7515563690 -5.33E-04
     3 OT DIIS     0.80E-01    3.0     0.00005422     -1636.7517838992 -2.28E-04
     4 OT DIIS     0.80E-01    3.0     0.00005670     -1636.7520191024 -2.35E-04
     5 OT DIIS     0.80E-01    2.9     0.00003429     -1636.7521705624 -1.51E-04
     6 OT DIIS     0.80E-01    2.9     0.00003055     -1636.7522789401 -1.08E-04
     7 OT DIIS     0.80E-01    3.0     0.00002867     -1636.7524419202 -1.63E-04
     8 OT DIIS     0.80E-01    3.0     0.00002516     -1636.7525694998 -1.28E-04
     9 OT DIIS     0.80E-01    3.0     0.00002355     -1636.7526830416 -1.14E-04
    10 OT DIIS     0.80E-01    3.0     0.00002276     -1636.7527780634 -9.50E-05
    11 OT DIIS     0.80E-01    3.0     0.00002207     -1636.7529147282 -1.37E-04
    12 OT DIIS     0.80E-01    3.0     0.00002020     -1636.7531484970 -2.34E-04
    13 OT DIIS     0.80E-01    3.0     0.00002130     -1636.7532429340 -9.44E-05
    14 OT DIIS     0.80E-01    3.0     0.00001801     -1636.7533697841 -1.27E-04
    15 OT DIIS     0.80E-01    3.0     0.00001723     -1636.7534536274 -8.38E-05
    16 OT DIIS     0.80E-01    3.0     0.00001678     -1636.7535198481 -6.62E-05
    17 OT DIIS     0.80E-01    3.0     0.00001608     -1636.7536053864 -8.55E-05
    18 OT DIIS     0.80E-01    3.0     0.00001598     -1636.7536638977 -5.85E-05
    19 OT DIIS     0.80E-01    3.0     0.00001544     -1636.7537276733 -6.38E-05
    20 OT DIIS     0.80E-01    3.0     0.00001502     -1636.7537965777 -6.89E-05
    21 OT DIIS     0.80E-01    3.0     0.00001519     -1636.7538502941 -5.37E-05
    22 OT DIIS     0.80E-01    3.0     0.00001478     -1636.7539145776 -6.43E-05
    23 OT DIIS     0.80E-01    3.1     0.00001452     -1636.7539944469 -7.99E-05
    24 OT DIIS     0.80E-01    3.0     0.00001439     -1636.7540851067 -9.07E-05
    25 OT DIIS     0.80E-01    3.0     0.00001362     -1636.7542097097 -1.25E-04
    26 OT DIIS     0.80E-01    3.0     0.00001368     -1636.7542823266 -7.26E-05
    27 OT DIIS     0.80E-01    3.0     0.00001307     -1636.7543652737 -8.29E-05
    28 OT DIIS     0.80E-01    3.1     0.00001254     -1636.7544342509 -6.90E-05
    29 OT DIIS     0.80E-01    3.0     0.00001252     -1636.7544824268 -4.82E-05
    30 OT DIIS     0.80E-01    3.0     0.00001215     -1636.7545322623 -4.98E-05
    31 OT DIIS     0.80E-01    3.1     0.00001178     -1636.7545932279 -6.10E-05
    32 OT DIIS     0.80E-01    3.0     0.00001153     -1636.7546572872 -6.41E-05
    33 OT DIIS     0.80E-01    3.0     0.00001103     -1636.7547125899 -5.53E-05
    34 OT DIIS     0.80E-01    3.1     0.00001081     -1636.7547549885 -4.24E-05
    35 OT DIIS     0.80E-01    3.0     0.00001082     -1636.7548005309 -4.55E-05
    36 OT DIIS     0.80E-01    3.1     0.00001027     -1636.7548523851 -5.19E-05
    37 OT DIIS     0.80E-01    3.0     0.00000984     -1636.7549070275 -5.46E-05

  *** SCF run converged in    37 steps ***


  Electronic density on regular grids:       -895.9999975163        0.0000024837
  Core density on regular grids:              895.9999999261       -0.0000000739
  Total charge density on r-space grids:        0.0000024098
  Total charge density g-space grids:           0.0000024098

  Overlap energy of the core charge distribution:               0.00005125041146
  Self energy of the core charge distribution:              -3531.67332257831958
  Core Hamiltonian energy:                                   1019.49083179386719
  Hartree energy:                                            1266.44204369521185
  Exchange-correlation energy:                               -390.18511591236086
  Dispersion energy:                                           -0.82939527634727

  Total energy:                                             -1636.75490702753700

  outer SCF iter =    1 RMS gradient =   0.98E-05 energy =      -1636.7549070275
  outer SCF loop converged in   1 iterations or   37 steps


 ENERGY| Total FORCE_EVAL ( QS ) energy [a.u.]:            -1636.754939593107565

 --------  Informations at step =     7 ------------
  Optimization Method        =                 BFGS
  Total Energy               =     -1636.7549395931
  Real energy change         =        -0.0013420290
  Predicted change in energy =        -0.0000173310
  Scaling factor             =         0.0000000000
  Step size                  =         0.0064510167
  Trust radius               =         0.4724315332
  Decrease in energy         =                   NO
  Used time                  =              120.858

  Convergence check :
  Max. step size             =         0.0064510167
  Conv. limit for step size  =         0.0010000000
  Convergence in step size   =                   NO
  RMS step size              =         0.0012443483
  Conv. limit for RMS step   =         0.0015000000
  Convergence in RMS step    =                  YES
  Max. gradient              =         0.0005652311
  Conv. limit for gradients  =         0.0004500000
  Conv. for gradients        =                   NO
  RMS gradient               =         0.0000711019
  Conv. limit for RMS grad.  =         0.0003000000
  Conv. in RMS gradients     =                  YES
 ---------------------------------------------------

 --------------------------
 OPTIMIZATION STEP:      8
 --------------------------

 Number of electrons:                                                        896
 Number of occupied orbitals:                                                448
 Number of molecular orbitals:                                               448

 Number of orbital functions:                                               2720
 Number of independent orbital functions:                                   2720

 Extrapolation method: ASPC


 SCF WAVEFUNCTION OPTIMIZATION

  ----------------------------------- OT ---------------------------------------
  Minimizer      : DIIS                : direct inversion
                                         in the iterative subspace
                                         using   7 DIIS vectors
                                         safer DIIS on
  Preconditioner : FULL_SINGLE_INVERSE : inversion of 
                                         H + eS - 2*(Sc)(c^T*H*c+const)(Sc)^T
  Precond_solver : DEFAULT
  stepsize       :    0.08000000                  energy_gap     :    0.08000000
  eps_taylor     :   0.10000E-15                  max_taylor     :             4
  ----------------------------------- OT ---------------------------------------

  Step     Update method      Time    Convergence         Total energy    Change
  ------------------------------------------------------------------------------
     1 OT DIIS     0.80E-01    4.1     0.00029133     -1636.7352552494 -1.64E+03
     2 OT DIIS     0.80E-01    3.0     0.00035272     -1636.7385789508 -3.32E-03
     3 OT DIIS     0.80E-01    3.0     0.00017881     -1636.7412736665 -2.69E-03
     4 OT DIIS     0.80E-01    3.0     0.00018535     -1636.7438312232 -2.56E-03
     5 OT DIIS     0.80E-01    3.0     0.00022787     -1636.7458685737 -2.04E-03
     6 OT DIIS     0.80E-01    2.9     0.00010931     -1636.7476660257 -1.80E-03
     7 OT DIIS     0.80E-01    3.0     0.00009906     -1636.7483686596 -7.03E-04
     8 OT DIIS     0.80E-01    3.0     0.00007520     -1636.7496192143 -1.25E-03
     9 OT DIIS     0.80E-01    3.1     0.00008261     -1636.7507387905 -1.12E-03
    10 OT DIIS     0.80E-01    3.1     0.00006505     -1636.7520270923 -1.29E-03
    11 OT DIIS     0.80E-01    3.1     0.00005904     -1636.7528779569 -8.51E-04
    12 OT DIIS     0.80E-01    3.0     0.00005724     -1636.7535239899 -6.46E-04
    13 OT DIIS     0.80E-01    3.0     0.00004432     -1636.7539260323 -4.02E-04
    14 OT DIIS     0.80E-01    3.1     0.00004108     -1636.7541704983 -2.44E-04
    15 OT DIIS     0.80E-01    3.1     0.00003477     -1636.7543371787 -1.67E-04
    16 OT DIIS     0.80E-01    3.1     0.00002530     -1636.7544607682 -1.24E-04
    17 OT DIIS     0.80E-01    3.1     0.00002335     -1636.7545480210 -8.73E-05
    18 OT DIIS     0.80E-01    3.1     0.00002248     -1636.7546113309 -6.33E-05
    19 OT DIIS     0.80E-01    3.1     0.00002112     -1636.7546566803 -4.53E-05
    20 OT DIIS     0.80E-01    3.0     0.00002071     -1636.7546946049 -3.79E-05
    21 OT DIIS     0.80E-01    3.1     0.00001995     -1636.7547254074 -3.08E-05
    22 OT DIIS     0.80E-01    3.0     0.00001985     -1636.7547662668 -4.09E-05
    23 OT DIIS     0.80E-01    3.0     0.00002024     -1636.7548212197 -5.50E-05
    24 OT DIIS     0.80E-01    3.0     0.00002013     -1636.7548767224 -5.55E-05
    25 OT DIIS     0.80E-01    3.0     0.00001932     -1636.7549504093 -7.37E-05
    26 OT DIIS     0.80E-01    3.1     0.00002001     -1636.7550139028 -6.35E-05
    27 OT DIIS     0.80E-01    3.1     0.00001880     -1636.7550967304 -8.28E-05
    28 OT DIIS     0.80E-01    3.1     0.00001939     -1636.7551795704 -8.28E-05
    29 OT DIIS     0.80E-01    3.1     0.00001553     -1636.7552990709 -1.20E-04
    30 OT DIIS     0.80E-01    3.0     0.00001342     -1636.7554201167 -1.21E-04
    31 OT DIIS     0.80E-01    3.0     0.00001241     -1636.7555013787 -8.13E-05
    32 OT DIIS     0.80E-01    3.1     0.00001230     -1636.7555503749 -4.90E-05
    33 OT DIIS     0.80E-01    3.0     0.00001206     -1636.7555855910 -3.52E-05
    34 OT DIIS     0.80E-01    3.1     0.00001169     -1636.7556125890 -2.70E-05
    35 OT DIIS     0.80E-01    3.0     0.00001092     -1636.7556432283 -3.06E-05
    36 OT DIIS     0.80E-01    3.0     0.00001158     -1636.7556639473 -2.07E-05
    37 OT DIIS     0.80E-01    3.0     0.00001004     -1636.7556871942 -2.32E-05
    38 OT DIIS     0.80E-01    3.1     0.00000888     -1636.7557126230 -2.54E-05

  *** SCF run converged in    38 steps ***


  Electronic density on regular grids:       -895.9999974170        0.0000025830
  Core density on regular grids:              895.9999999261       -0.0000000739
  Total charge density on r-space grids:        0.0000025091
  Total charge density g-space grids:           0.0000025091

  Overlap energy of the core charge distribution:               0.00005133411334
  Self energy of the core charge distribution:              -3531.67332257831958
  Core Hamiltonian energy:                                   1019.50497772620338
  Hartree energy:                                            1266.43219804694672
  Exchange-correlation energy:                               -390.19022453305229
  Dispersion energy:                                           -0.82939261889852

  Total energy:                                             -1636.75571262300696

  outer SCF iter =    1 RMS gradient =   0.89E-05 energy =      -1636.7557126230
  outer SCF loop converged in   1 iterations or   38 steps


 ENERGY| Total FORCE_EVAL ( QS ) energy [a.u.]:            -1636.755732389606464

 --------  Informations at step =     8 ------------
  Optimization Method        =                 BFGS
  Total Energy               =     -1636.7557323896
  Real energy change         =        -0.0007927965
  Predicted change in energy =        -0.0000168769
  Scaling factor             =         0.0000000000
  Step size                  =         0.0084256080
  Trust radius               =         0.4724315332
  Decrease in energy         =                  YES
  Used time                  =              125.096

  Convergence check :
  Max. step size             =         0.0084256080
  Conv. limit for step size  =         0.0010000000
  Convergence in step size   =                   NO
  RMS step size              =         0.0015505636
  Conv. limit for RMS step   =         0.0015000000
  Convergence in RMS step    =                   NO
  Max. gradient              =         0.0005575776
  Conv. limit for gradients  =         0.0004500000
  Conv. for gradients        =                   NO
  RMS gradient               =         0.0000716905
  Conv. limit for RMS grad.  =         0.0003000000
  Conv. in RMS gradients     =                  YES
 ---------------------------------------------------

 --------------------------
 OPTIMIZATION STEP:      9
 --------------------------

 Number of electrons:                                                        896
 Number of occupied orbitals:                                                448
 Number of molecular orbitals:                                               448

 Number of orbital functions:                                               2720
 Number of independent orbital functions:                                   2720

 Extrapolation method: ASPC


 SCF WAVEFUNCTION OPTIMIZATION

  ----------------------------------- OT ---------------------------------------
  Minimizer      : DIIS                : direct inversion
                                         in the iterative subspace
                                         using   7 DIIS vectors
                                         safer DIIS on
  Preconditioner : FULL_SINGLE_INVERSE : inversion of 
                                         H + eS - 2*(Sc)(c^T*H*c+const)(Sc)^T
  Precond_solver : DEFAULT
  stepsize       :    0.08000000                  energy_gap     :    0.08000000
  eps_taylor     :   0.10000E-15                  max_taylor     :             4
  ----------------------------------- OT ---------------------------------------

  Step     Update method      Time    Convergence         Total energy    Change
  ------------------------------------------------------------------------------
     1 OT DIIS     0.80E-01    4.1     0.00011030     -1636.7517514481 -1.64E+03
     2 OT DIIS     0.80E-01    2.9     0.00009456     -1636.7523841700 -6.33E-04
     3 OT DIIS     0.80E-01    2.9     0.00006934     -1636.7526396627 -2.55E-04
     4 OT DIIS     0.80E-01    3.0     0.00006629     -1636.7528553756 -2.16E-04
     5 OT DIIS     0.80E-01    3.0     0.00003649     -1636.7530813945 -2.26E-04
     6 OT DIIS     0.80E-01    2.9     0.00003453     -1636.7532350990 -1.54E-04
     7 OT DIIS     0.80E-01    3.0     0.00003226     -1636.7534218319 -1.87E-04
     8 OT DIIS     0.80E-01    3.0     0.00002583     -1636.7535973321 -1.76E-04
     9 OT DIIS     0.80E-01    3.0     0.00002330     -1636.7537136451 -1.16E-04
    10 OT DIIS     0.80E-01    3.0     0.00002179     -1636.7537964128 -8.28E-05
    11 OT DIIS     0.80E-01    3.0     0.00002054     -1636.7538879718 -9.16E-05
    12 OT DIIS     0.80E-01    3.0     0.00002095     -1636.7540258610 -1.38E-04
    13 OT DIIS     0.80E-01    3.1     0.00001890     -1636.7540795713 -5.37E-05
    14 OT DIIS     0.80E-01    3.0     0.00001698     -1636.7541740265 -9.45E-05
    15 OT DIIS     0.80E-01    3.0     0.00001570     -1636.7542304186 -5.64E-05
    16 OT DIIS     0.80E-01    3.0     0.00001487     -1636.7542751648 -4.47E-05
    17 OT DIIS     0.80E-01    3.1     0.00001410     -1636.7543314729 -5.63E-05
    18 OT DIIS     0.80E-01    3.1     0.00001397     -1636.7543762602 -4.48E-05
    19 OT DIIS     0.80E-01    3.0     0.00001284     -1636.7544333939 -5.71E-05
    20 OT DIIS     0.80E-01    3.0     0.00001267     -1636.7544896154 -5.62E-05
    21 OT DIIS     0.80E-01    3.1     0.00001214     -1636.7545172027 -2.76E-05
    22 OT DIIS     0.80E-01    3.1     0.00001145     -1636.7545590442 -4.18E-05
    23 OT DIIS     0.80E-01    3.0     0.00001118     -1636.7545938736 -3.48E-05
    24 OT DIIS     0.80E-01    3.1     0.00001070     -1636.7546286575 -3.48E-05
    25 OT DIIS     0.80E-01    3.1     0.00001012     -1636.7546699099 -4.13E-05
    26 OT DIIS     0.80E-01    3.1     0.00000952     -1636.7546947168 -2.48E-05

  *** SCF run converged in    26 steps ***


  Electronic density on regular grids:       -895.9999972172        0.0000027828
  Core density on regular grids:              895.9999999260       -0.0000000740
  Total charge density on r-space grids:        0.0000027088
  Total charge density g-space grids:           0.0000027088

  Overlap energy of the core charge distribution:               0.00005132144892
  Self energy of the core charge distribution:              -3531.67332257831958
  Core Hamiltonian energy:                                   1019.55184005934370
  Hartree energy:                                            1266.39380134354451
  Exchange-correlation energy:                               -390.19767317129362
  Dispersion energy:                                           -0.82939169147823

  Total energy:                                             -1636.75469471675410

  outer SCF iter =    1 RMS gradient =   0.95E-05 energy =      -1636.7546947168
  outer SCF loop converged in   1 iterations or   26 steps


 ENERGY| Total FORCE_EVAL ( QS ) energy [a.u.]:            -1636.754720136453898

 --------  Informations at step =     9 ------------
  Optimization Method        =                 BFGS
  Total Energy               =     -1636.7547201365
  Real energy change         =         0.0010122532
  Predicted change in energy =        -0.0000141684
  Scaling factor             =         0.0000000000
  Step size                  =         0.0088525575
  Trust radius               =         0.4724315332
  Decrease in energy         =                   NO
  Used time                  =               87.814

  Convergence check :
  Max. step size             =         0.0088525575
  Conv. limit for step size  =         0.0010000000
  Convergence in step size   =                   NO
  RMS step size              =         0.0015852281
  Conv. limit for RMS step   =         0.0015000000
  Convergence in RMS step    =                   NO
  Max. gradient              =         0.0003091612
  Conv. limit for gradients  =         0.0004500000
  Conv. in gradients         =                  YES
  RMS gradient               =         0.0000550610
  Conv. limit for RMS grad.  =         0.0003000000
  Conv. in RMS gradients     =                  YES
 ---------------------------------------------------

 --------------------------
 OPTIMIZATION STEP:     10
 --------------------------

 Number of electrons:                                                        896
 Number of occupied orbitals:                                                448
 Number of molecular orbitals:                                               448

 Number of orbital functions:                                               2720
 Number of independent orbital functions:                                   2720

 Extrapolation method: ASPC


 SCF WAVEFUNCTION OPTIMIZATION

  ----------------------------------- OT ---------------------------------------
  Minimizer      : DIIS                : direct inversion
                                         in the iterative subspace
                                         using   7 DIIS vectors
                                         safer DIIS on
  Preconditioner : FULL_SINGLE_INVERSE : inversion of 
                                         H + eS - 2*(Sc)(c^T*H*c+const)(Sc)^T
  Precond_solver : DEFAULT
  stepsize       :    0.08000000                  energy_gap     :    0.08000000
  eps_taylor     :   0.10000E-15                  max_taylor     :             4
  ----------------------------------- OT ---------------------------------------

  Step     Update method      Time    Convergence         Total energy    Change
  ------------------------------------------------------------------------------
     1 OT DIIS     0.80E-01    4.2     0.00027152     -1636.7442857234 -1.64E+03
     2 OT DIIS     0.80E-01    3.0     0.00026228     -1636.7462239586 -1.94E-03
     3 OT DIIS     0.80E-01    3.0     0.00011279     -1636.7480089508 -1.78E-03
     4 OT DIIS     0.80E-01    3.0     0.00009891     -1636.7488665528 -8.58E-04
     5 OT DIIS     0.80E-01    3.0     0.00009316     -1636.7498723431 -1.01E-03
     6 OT DIIS     0.80E-01    3.0     0.00006083     -1636.7505266512 -6.54E-04
     7 OT DIIS     0.80E-01    3.0     0.00005365     -1636.7509978131 -4.71E-04
     8 OT DIIS     0.80E-01    3.0     0.00005346     -1636.7513926367 -3.95E-04
     9 OT DIIS     0.80E-01    3.1     0.00004637     -1636.7518124010 -4.20E-04
    10 OT DIIS     0.80E-01    3.0     0.00004244     -1636.7524888048 -6.76E-04
    11 OT DIIS     0.80E-01    3.0     0.00003967     -1636.7528826692 -3.94E-04
    12 OT DIIS     0.80E-01    3.0     0.00003596     -1636.7532317374 -3.49E-04
    13 OT DIIS     0.80E-01    3.0     0.00003561     -1636.7535183806 -2.87E-04
    14 OT DIIS     0.80E-01    3.0     0.00003445     -1636.7536821653 -1.64E-04
    15 OT DIIS     0.80E-01    3.0     0.00003320     -1636.7538645139 -1.82E-04
    16 OT DIIS     0.80E-01    3.0     0.00003284     -1636.7540004891 -1.36E-04
    17 OT DIIS     0.80E-01    3.0     0.00003271     -1636.7540772067 -7.67E-05
    18 OT DIIS     0.80E-01    3.0     0.00003263     -1636.7541422164 -6.50E-05
    19 OT SD       0.80E-01    3.0     0.00003262     -1636.7541567556 -1.45E-05
    20 OT SD       0.80E-01    3.0     0.00003266     -1636.7542605415 -1.04E-04
    21 OT SD       0.80E-01    3.0     0.00003269     -1636.7543644890 -1.04E-04
    22 OT DIIS     0.80E-01    3.1     0.00003276     -1636.7544683384 -1.04E-04
    23 OT DIIS     0.80E-01    3.0     0.00003301     -1636.7549871855 -5.19E-04
    24 OT DIIS     0.80E-01    3.0     0.00003282     -1636.7549969249 -9.74E-06
    25 OT DIIS     0.80E-01    3.0     0.00003122     -1636.7557697543 -7.73E-04
    26 OT DIIS     0.80E-01    3.1     0.00002836     -1636.7567012825 -9.32E-04
    27 OT DIIS     0.80E-01    3.0     0.00003021     -1636.7569768148 -2.76E-04
    28 OT DIIS     0.80E-01    3.1     0.00002586     -1636.7573287159 -3.52E-04
    29 OT DIIS     0.80E-01    3.1     0.00002248     -1636.7579290711 -6.00E-04
    30 OT DIIS     0.80E-01    3.0     0.00002564     -1636.7581386287 -2.10E-04
    31 OT DIIS     0.80E-01    3.1     0.00001719     -1636.7582900533 -1.51E-04
    32 OT DIIS     0.80E-01    3.0     0.00001687     -1636.7583236002 -3.35E-05
    33 OT DIIS     0.80E-01    3.1     0.00001514     -1636.7584120043 -8.84E-05
    34 OT DIIS     0.80E-01    3.1     0.00001407     -1636.7584489481 -3.69E-05
    35 OT DIIS     0.80E-01    3.0     0.00001383     -1636.7584991730 -5.02E-05
    36 OT DIIS     0.80E-01    3.0     0.00001324     -1636.7585525268 -5.34E-05
    37 OT DIIS     0.80E-01    3.0     0.00001239     -1636.7586124617 -5.99E-05
    38 OT DIIS     0.80E-01    3.1     0.00001155     -1636.7586660450 -5.36E-05
    39 OT DIIS     0.80E-01    3.0     0.00001233     -1636.7587288796 -6.28E-05
    40 OT DIIS     0.80E-01    3.0     0.00000839     -1636.7587771065 -4.82E-05

  *** SCF run converged in    40 steps ***


  Electronic density on regular grids:       -895.9999973744        0.0000026256
  Core density on regular grids:              895.9999999260       -0.0000000740
  Total charge density on r-space grids:        0.0000025516
  Total charge density g-space grids:           0.0000025516

  Overlap energy of the core charge distribution:               0.00005124183347
  Self energy of the core charge distribution:              -3531.67332257831958
  Core Hamiltonian energy:                                   1019.56181980635324
  Hartree energy:                                            1266.38021454425052
  Exchange-correlation energy:                               -390.19814832782441
  Dispersion energy:                                           -0.82939179282049

  Total energy:                                             -1636.75877710652753

  outer SCF iter =    1 RMS gradient =   0.84E-05 energy =      -1636.7587771065
  outer SCF loop converged in   1 iterations or   40 steps


 ENERGY| Total FORCE_EVAL ( QS ) energy [a.u.]:            -1636.758793719794539

 --------  Informations at step =    10 ------------
  Optimization Method        =                 BFGS
  Total Energy               =     -1636.7587937198
  Real energy change         =        -0.0040735833
  Predicted change in energy =        -0.0000109620
  Scaling factor             =         0.0000000000
  Step size                  =         0.0084406319
  Trust radius               =         0.4724315332
  Decrease in energy         =                  YES
  Used time                  =              130.484

  Convergence check :
  Max. step size             =         0.0084406319
  Conv. limit for step size  =         0.0010000000
  Convergence in step size   =                   NO
  RMS step size              =         0.0014325468
  Conv. limit for RMS step   =         0.0015000000
  Convergence in RMS step    =                  YES
  Max. gradient              =         0.0001561184
  Conv. limit for gradients  =         0.0004500000
  Conv. in gradients         =                  YES
  RMS gradient               =         0.0000372153
  Conv. limit for RMS grad.  =         0.0003000000
  Conv. in RMS gradients     =                  YES
 ---------------------------------------------------

 --------------------------
 OPTIMIZATION STEP:     11
 --------------------------

 Number of electrons:                                                        896
 Number of occupied orbitals:                                                448
 Number of molecular orbitals:                                               448

 Number of orbital functions:                                               2720
 Number of independent orbital functions:                                   2720

 Extrapolation method: ASPC


 SCF WAVEFUNCTION OPTIMIZATION

  ----------------------------------- OT ---------------------------------------
  Minimizer      : DIIS                : direct inversion
                                         in the iterative subspace
                                         using   7 DIIS vectors
                                         safer DIIS on
  Preconditioner : FULL_SINGLE_INVERSE : inversion of 
                                         H + eS - 2*(Sc)(c^T*H*c+const)(Sc)^T
  Precond_solver : DEFAULT
  stepsize       :    0.08000000                  energy_gap     :    0.08000000
  eps_taylor     :   0.10000E-15                  max_taylor     :             4
  ----------------------------------- OT ---------------------------------------

  Step     Update method      Time    Convergence         Total energy    Change
  ------------------------------------------------------------------------------
     1 OT DIIS     0.80E-01    4.0     0.00039128     -1636.7443092163 -1.64E+03
     2 OT DIIS     0.80E-01    2.9     0.00034140     -1636.7492179727 -4.91E-03
     3 OT DIIS     0.80E-01    3.0     0.00013122     -1636.7522776029 -3.06E-03
     4 OT DIIS     0.80E-01    3.0     0.00011715     -1636.7534782579 -1.20E-03
     5 OT DIIS     0.80E-01    3.0     0.00007715     -1636.7539198831 -4.42E-04
     6 OT DIIS     0.80E-01    3.0     0.00004983     -1636.7541511040 -2.31E-04
     7 OT DIIS     0.80E-01    3.0     0.00004336     -1636.7543955556 -2.44E-04
     8 OT DIIS     0.80E-01    3.0     0.00003875     -1636.7546355926 -2.40E-04
     9 OT DIIS     0.80E-01    3.0     0.00003593     -1636.7547928932 -1.57E-04
    10 OT DIIS     0.80E-01    2.9     0.00003261     -1636.7549733132 -1.80E-04
    11 OT DIIS     0.80E-01    3.0     0.00003218     -1636.7551149209 -1.42E-04
    12 OT DIIS     0.80E-01    3.0     0.00003046     -1636.7553690103 -2.54E-04
    13 OT DIIS     0.80E-01    3.0     0.00003170     -1636.7556213135 -2.52E-04
    14 OT DIIS     0.80E-01    3.0     0.00002927     -1636.7559043471 -2.83E-04
    15 OT DIIS     0.80E-01    3.3     0.00002677     -1636.7562472582 -3.43E-04
    16 OT DIIS     0.80E-01    3.2     0.00002551     -1636.7564959086 -2.49E-04
    17 OT DIIS     0.80E-01    3.2     0.00002455     -1636.7567454744 -2.50E-04
    18 OT DIIS     0.80E-01    3.7     0.00002341     -1636.7568729834 -1.28E-04
    19 OT DIIS     0.80E-01    3.1     0.00002291     -1636.7570058766 -1.33E-04
    20 OT DIIS     0.80E-01    3.1     0.00002230     -1636.7570947071 -8.88E-05
    21 OT DIIS     0.80E-01    3.2     0.00002217     -1636.7571580777 -6.34E-05
    22 OT DIIS     0.80E-01    3.1     0.00002212     -1636.7572160066 -5.79E-05
    23 OT DIIS     0.80E-01    3.5     0.00002200     -1636.7572926735 -7.67E-05
    24 OT DIIS     0.80E-01    3.3     0.00002197     -1636.7573640282 -7.14E-05
    25 OT DIIS     0.80E-01    3.2     0.00002182     -1636.7574453688 -8.13E-05
    26 OT DIIS     0.80E-01    3.3     0.00002178     -1636.7574902037 -4.48E-05
    27 OT DIIS     0.80E-01    3.3     0.00002168     -1636.7575957047 -1.06E-04
    28 OT DIIS     0.80E-01    3.3     0.00002146     -1636.7577122087 -1.17E-04
    29 OT DIIS     0.80E-01    3.2     0.00002105     -1636.7580152358 -3.03E-04
    30 OT DIIS     0.80E-01    3.2     0.00002148     -1636.7582979794 -2.83E-04
    31 OT DIIS     0.80E-01    3.1     0.00002078     -1636.7584554755 -1.57E-04
    32 OT SD       0.80E-01    3.2     0.00002043     -1636.7584905258 -3.51E-05
    33 OT SD       0.80E-01    3.2     0.00002045     -1636.7585295111 -3.90E-05
    34 OT DIIS     0.80E-01    3.1     0.00002275     -1636.7585653853 -3.59E-05
    35 OT DIIS     0.80E-01    3.2     0.00001886     -1636.7588971003 -3.32E-04
    36 OT DIIS     0.80E-01    3.1     0.00001752     -1636.7589514666 -5.44E-05
    37 OT DIIS     0.80E-01    3.1     0.00001519     -1636.7590893743 -1.38E-04
    38 OT DIIS     0.80E-01    3.1     0.00001335     -1636.7592817106 -1.92E-04
    39 OT DIIS     0.80E-01    3.2     0.00001116     -1636.7593561433 -7.44E-05
    40 OT DIIS     0.80E-01    3.1     0.00001148     -1636.7594025028 -4.64E-05
    41 OT DIIS     0.80E-01    3.2     0.00000783     -1636.7594327267 -3.02E-05

  *** SCF run converged in    41 steps ***


  Electronic density on regular grids:       -895.9999981033        0.0000018967
  Core density on regular grids:              895.9999999259       -0.0000000741
  Total charge density on r-space grids:        0.0000018226
  Total charge density g-space grids:           0.0000018226

  Overlap energy of the core charge distribution:               0.00005116400342
  Self energy of the core charge distribution:              -3531.67332257831958
  Core Hamiltonian energy:                                   1019.54973799844697
  Hartree energy:                                            1266.38951212707912
  Exchange-correlation energy:                               -390.19601974916327
  Dispersion energy:                                           -0.82939168875841

  Total energy:                                             -1636.75943272671179

  outer SCF iter =    1 RMS gradient =   0.78E-05 energy =      -1636.7594327267
  outer SCF loop converged in   1 iterations or   41 steps


 ENERGY| Total FORCE_EVAL ( QS ) energy [a.u.]:            -1636.759452709205561

 --------  Informations at step =    11 ------------
  Optimization Method        =                 BFGS
  Total Energy               =     -1636.7594527092
  Real energy change         =        -0.0006589894
  Predicted change in energy =        -0.0000075199
  Scaling factor             =         0.0000000000
  Step size                  =         0.0069383346
  Trust radius               =         0.4724315332
  Decrease in energy         =                  YES
  Used time                  =              138.487

  Convergence check :
  Max. step size             =         0.0069383346
  Conv. limit for step size  =         0.0010000000
  Convergence in step size   =                   NO
  RMS step size              =         0.0011962020
  Conv. limit for RMS step   =         0.0015000000
  Convergence in RMS step    =                  YES
  Max. gradient              =         0.0002632091
  Conv. limit for gradients  =         0.0004500000
  Conv. in gradients         =                  YES
  RMS gradient               =         0.0000370292
  Conv. limit for RMS grad.  =         0.0003000000
  Conv. in RMS gradients     =                  YES
 ---------------------------------------------------

 --------------------------
 OPTIMIZATION STEP:     12
 --------------------------

 Number of electrons:                                                        896
 Number of occupied orbitals:                                                448
 Number of molecular orbitals:                                               448

 Number of orbital functions:                                               2720
 Number of independent orbital functions:                                   2720

 Extrapolation method: ASPC


 SCF WAVEFUNCTION OPTIMIZATION

  ----------------------------------- OT ---------------------------------------
  Minimizer      : DIIS                : direct inversion
                                         in the iterative subspace
                                         using   7 DIIS vectors
                                         safer DIIS on
  Preconditioner : FULL_SINGLE_INVERSE : inversion of 
                                         H + eS - 2*(Sc)(c^T*H*c+const)(Sc)^T
  Precond_solver : DEFAULT
  stepsize       :    0.08000000                  energy_gap     :    0.08000000
  eps_taylor     :   0.10000E-15                  max_taylor     :             4
  ----------------------------------- OT ---------------------------------------

  Step     Update method      Time    Convergence         Total energy    Change
  ------------------------------------------------------------------------------
     1 OT DIIS     0.80E-01    4.7     0.00047819     -1636.7329579204 -1.64E+03
     2 OT DIIS     0.80E-01    3.2     0.00042542     -1636.7418665718 -8.91E-03
     3 OT DIIS     0.80E-01    3.2     0.00019459     -1636.7463197307 -4.45E-03
     4 OT DIIS     0.80E-01    3.4     0.00015852     -1636.7486879679 -2.37E-03
     5 OT DIIS     0.80E-01    3.5     0.00010536     -1636.7494804496 -7.92E-04
     6 OT DIIS     0.80E-01    3.3     0.00007374     -1636.7500099988 -5.30E-04
     7 OT DIIS     0.80E-01    3.2     0.00007399     -1636.7506091341 -5.99E-04
     8 OT DIIS     0.80E-01    3.2     0.00005706     -1636.7511045639 -4.95E-04
     9 OT DIIS     0.80E-01    3.3     0.00004767     -1636.7514806248 -3.76E-04
    10 OT DIIS     0.80E-01    3.2     0.00004183     -1636.7517331416 -2.53E-04
    11 OT DIIS     0.80E-01    3.3     0.00003866     -1636.7519300047 -1.97E-04
    12 OT DIIS     0.80E-01    3.3     0.00003724     -1636.7521769840 -2.47E-04
    13 OT DIIS     0.80E-01    3.3     0.00003746     -1636.7523963045 -2.19E-04
    14 OT DIIS     0.80E-01    3.3     0.00003428     -1636.7526257147 -2.29E-04
    15 OT DIIS     0.80E-01    3.2     0.00003219     -1636.7528777418 -2.52E-04
    16 OT DIIS     0.80E-01    3.2     0.00002973     -1636.7530710783 -1.93E-04
    17 OT DIIS     0.80E-01    3.4     0.00002814     -1636.7532605585 -1.89E-04
    18 OT DIIS     0.80E-01    3.3     0.00002739     -1636.7534344854 -1.74E-04
    19 OT DIIS     0.80E-01    3.2     0.00002589     -1636.7536130232 -1.79E-04
    20 OT DIIS     0.80E-01    3.2     0.00002541     -1636.7537573317 -1.44E-04
    21 OT SD       0.80E-01    3.2     0.00002495     -1636.7537944262 -3.71E-05
    22 OT SD       0.80E-01    3.3     0.00002501     -1636.7538541375 -5.97E-05
    23 OT SD       0.80E-01    3.2     0.00002687     -1636.7539117280 -5.76E-05
    24 OT SD       0.80E-01    3.3     0.00003999     -1636.7539590471 -4.73E-05
    25 OT DIIS     0.80E-01    3.3     0.00009827     -1636.7539190295  4.00E-05
    26 OT DIIS     0.80E-01    3.3     0.00002435     -1636.7541025378 -1.84E-04
    27 OT DIIS     0.80E-01    3.3     0.00002461     -1636.7542221046 -1.20E-04
    28 OT DIIS     0.80E-01    3.2     0.00002484     -1636.7543507611 -1.29E-04
    29 OT DIIS     0.80E-01    3.2     0.00002352     -1636.7543856671 -3.49E-05
    30 OT DIIS     0.80E-01    3.2     0.00002078     -1636.7545841703 -1.99E-04
    31 OT DIIS     0.80E-01    3.2     0.00002089     -1636.7547270081 -1.43E-04
    32 OT SD       0.80E-01    3.3     0.00002019     -1636.7548052782 -7.83E-05
    33 OT DIIS     0.80E-01    3.3     0.00002012     -1636.7548444736 -3.92E-05
    34 OT DIIS     0.80E-01    3.2     0.00002029     -1636.7548889344 -4.45E-05
    35 OT DIIS     0.80E-01    3.3     0.00002033     -1636.7551160007 -2.27E-04
    36 OT DIIS     0.80E-01    3.3     0.00002013     -1636.7551526861 -3.67E-05
    37 OT DIIS     0.80E-01    3.2     0.00001925     -1636.7551949484 -4.23E-05
    38 OT DIIS     0.80E-01    3.3     0.00001899     -1636.7553215013 -1.27E-04
    39 OT DIIS     0.80E-01    3.3     0.00001894     -1636.7553807354 -5.92E-05
    40 OT DIIS     0.80E-01    3.2     0.00001888     -1636.7554276528 -4.69E-05
    41 OT DIIS     0.80E-01    3.3     0.00001884     -1636.7555183417 -9.07E-05
    42 OT DIIS     0.80E-01    3.4     0.00001888     -1636.7555493241 -3.10E-05
    43 OT DIIS     0.80E-01    3.2     0.00001885     -1636.7556133564 -6.40E-05
    44 OT DIIS     0.80E-01    3.3     0.00001882     -1636.7556894359 -7.61E-05
    45 OT DIIS     0.80E-01    3.3     0.00001877     -1636.7557688107 -7.94E-05
    46 OT DIIS     0.80E-01    3.3     0.00001844     -1636.7558863943 -1.18E-04
    47 OT DIIS     0.80E-01    3.3     0.00001773     -1636.7562432463 -3.57E-04
    48 OT DIIS     0.80E-01    3.3     0.00001764     -1636.7565112349 -2.68E-04
    49 OT DIIS     0.80E-01    3.2     0.00001675     -1636.7568821474 -3.71E-04
    50 OT DIIS     0.80E-01    3.3     0.00001655     -1636.7569690900 -8.69E-05
    51 OT SD       0.80E-01    3.3     0.00001598     -1636.7570595290 -9.04E-05
    52 OT SD       0.80E-01    3.3     0.00001773     -1636.7570820026 -2.25E-05
    53 OT DIIS     0.80E-01    3.3     0.00002991     -1636.7570969708 -1.50E-05
    54 OT SD       0.80E-01    3.2     0.00001718     -1636.7571019102 -4.94E-06
    55 OT SD       0.80E-01    3.2     0.00002478     -1636.7571186381 -1.67E-05
    56 OT DIIS     0.80E-01    3.2     0.00005037     -1636.7571128260  5.81E-06
    57 OT DIIS     0.80E-01    3.3     0.00001545     -1636.7571334264 -2.06E-05
    58 OT DIIS     0.80E-01    3.3     0.00001471     -1636.7571689987 -3.56E-05
    59 OT DIIS     0.80E-01    3.3     0.00001444     -1636.7571874034 -1.84E-05
    60 OT DIIS     0.80E-01    3.3     0.00001427     -1636.7572106475 -2.32E-05
    61 OT DIIS     0.80E-01    3.3     0.00001455     -1636.7572472739 -3.66E-05
    62 OT DIIS     0.80E-01    3.2     0.00001410     -1636.7572791291 -3.19E-05
    63 OT DIIS     0.80E-01    3.3     0.00001349     -1636.7573622561 -8.31E-05
    64 OT DIIS     0.80E-01    3.3     0.00001428     -1636.7575473756 -1.85E-04
    65 OT DIIS     0.80E-01    3.2     0.00001447     -1636.7575696978 -2.23E-05
    66 OT DIIS     0.80E-01    3.2     0.00001357     -1636.7576218448 -5.21E-05
    67 OT DIIS     0.80E-01    3.2     0.00001208     -1636.7576964261 -7.46E-05
    68 OT DIIS     0.80E-01    3.3     0.00001133     -1636.7577400407 -4.36E-05
    69 OT DIIS     0.80E-01    3.3     0.00001143     -1636.7577862269 -4.62E-05
    70 OT DIIS     0.80E-01    3.3     0.00001137     -1636.7578104018 -2.42E-05
    71 OT DIIS     0.80E-01    3.3     0.00001091     -1636.7578699377 -5.95E-05
    72 OT DIIS     0.80E-01    3.3     0.00001064     -1636.7579375090 -6.76E-05
    73 OT DIIS     0.80E-01    3.2     0.00001071     -1636.7579562303 -1.87E-05
    74 OT DIIS     0.80E-01    3.3     0.00001062     -1636.7579721366 -1.59E-05
    75 OT DIIS     0.80E-01    3.3     0.00001025     -1636.7580013722 -2.92E-05
    76 OT DIIS     0.80E-01    3.2     0.00001011     -1636.7580242392 -2.29E-05
    77 OT DIIS     0.80E-01    3.2     0.00001036     -1636.7580717310 -4.75E-05
    78 OT DIIS     0.80E-01    3.3     0.00001010     -1636.7580878006 -1.61E-05
    79 OT DIIS     0.80E-01    3.4     0.00000972     -1636.7581096019 -2.18E-05

  *** SCF run converged in    79 steps ***


  Electronic density on regular grids:       -895.9999982114        0.0000017886
  Core density on regular grids:              895.9999999259       -0.0000000741
  Total charge density on r-space grids:        0.0000017145
  Total charge density g-space grids:           0.0000017145

  Overlap energy of the core charge distribution:               0.00005113715634
  Self energy of the core charge distribution:              -3531.67332257831958
  Core Hamiltonian energy:                                   1019.53329460758573
  Hartree energy:                                            1266.40548744975240
  Exchange-correlation energy:                               -390.19422937391852
  Dispersion energy:                                           -0.82939084412935

  Total energy:                                             -1636.75810960187323

  outer SCF iter =    1 RMS gradient =   0.97E-05 energy =      -1636.7581096019
  outer SCF loop converged in   1 iterations or   79 steps


 ENERGY| Total FORCE_EVAL ( QS ) energy [a.u.]:            -1636.758133369465895

 --------  Informations at step =    12 ------------
  Optimization Method        =                 BFGS
  Total Energy               =     -1636.7581333695
  Real energy change         =         0.0013193397
  Predicted change in energy =        -0.0000041931
  Scaling factor             =         0.0000000000
  Step size                  =         0.0038089258
  Trust radius               =         0.4724315332
  Decrease in energy         =                   NO
  Used time                  =              268.682

  Convergence check :
  Max. step size             =         0.0038089258
  Conv. limit for step size  =         0.0010000000
  Convergence in step size   =                   NO
  RMS step size              =         0.0007351539
  Conv. limit for RMS step   =         0.0015000000
  Convergence in RMS step    =                  YES
  Max. gradient              =         0.0002783977
  Conv. limit for gradients  =         0.0004500000
  Conv. in gradients         =                  YES
  RMS gradient               =         0.0000324700
  Conv. limit for RMS grad.  =         0.0003000000
  Conv. in RMS gradients     =                  YES
 ---------------------------------------------------

 --------------------------
 OPTIMIZATION STEP:     13
 --------------------------

 Number of electrons:                                                        896
 Number of occupied orbitals:                                                448
 Number of molecular orbitals:                                               448

 Number of orbital functions:                                               2720
 Number of independent orbital functions:                                   2720

 Extrapolation method: ASPC


 SCF WAVEFUNCTION OPTIMIZATION

  ----------------------------------- OT ---------------------------------------
  Minimizer      : DIIS                : direct inversion
                                         in the iterative subspace
                                         using   7 DIIS vectors
                                         safer DIIS on
  Preconditioner : FULL_SINGLE_INVERSE : inversion of 
                                         H + eS - 2*(Sc)(c^T*H*c+const)(Sc)^T
  Precond_solver : DEFAULT
  stepsize       :    0.08000000                  energy_gap     :    0.08000000
  eps_taylor     :   0.10000E-15                  max_taylor     :             4
  ----------------------------------- OT ---------------------------------------

  Step     Update method      Time    Convergence         Total energy    Change
  ------------------------------------------------------------------------------
     1 OT DIIS     0.80E-01    4.5     0.00140866     -1636.6192775791 -1.64E+03
     2 OT DIIS     0.80E-01    3.3     0.00190139     -1636.6670863253 -4.78E-02
     3 OT DIIS     0.80E-01    3.2     0.00074135     -1636.7235972669 -5.65E-02
     4 OT DIIS     0.80E-01    3.2     0.00057231     -1636.7398943827 -1.63E-02
     5 OT DIIS     0.80E-01    3.3     0.00094490     -1636.7391664603  7.28E-04
     6 OT DIIS     0.80E-01    3.4     0.00016928     -1636.7471262644 -7.96E-03
     7 OT DIIS     0.80E-01    3.3     0.00010784     -1636.7482646169 -1.14E-03
     8 OT DIIS     0.80E-01    3.3     0.00014377     -1636.7492030006 -9.38E-04
     9 OT DIIS     0.80E-01    3.2     0.00013900     -1636.7495378008 -3.35E-04
    10 OT DIIS     0.80E-01    3.3     0.00008308     -1636.7500937082 -5.56E-04
    11 OT DIIS     0.80E-01    3.3     0.00005385     -1636.7504176188 -3.24E-04
    12 OT DIIS     0.80E-01    3.3     0.00005036     -1636.7506326763 -2.15E-04
    13 OT DIIS     0.80E-01    3.2     0.00004407     -1636.7507888177 -1.56E-04
    14 OT DIIS     0.80E-01    3.3     0.00004490     -1636.7509916688 -2.03E-04
    15 OT DIIS     0.80E-01    3.4     0.00004409     -1636.7511126675 -1.21E-04
    16 OT DIIS     0.80E-01    3.2     0.00004106     -1636.7512839087 -1.71E-04
    17 OT DIIS     0.80E-01    3.2     0.00004062     -1636.7514787894 -1.95E-04
    18 OT DIIS     0.80E-01    3.3     0.00004161     -1636.7516383987 -1.60E-04
    19 OT DIIS     0.80E-01    3.3     0.00003844     -1636.7519558047 -3.17E-04
    20 OT DIIS     0.80E-01    3.2     0.00003923     -1636.7525242094 -5.68E-04
    21 OT DIIS     0.80E-01    3.2     0.00003700     -1636.7529319411 -4.08E-04
    22 OT DIIS     0.80E-01    3.3     0.00003832     -1636.7535425810 -6.11E-04
    23 OT DIIS     0.80E-01    3.3     0.00004045     -1636.7537539498 -2.11E-04
    24 OT DIIS     0.80E-01    3.3     0.00003267     -1636.7539411460 -1.87E-04
    25 OT DIIS     0.80E-01    3.2     0.00003298     -1636.7540631451 -1.22E-04
    26 OT DIIS     0.80E-01    3.3     0.00003228     -1636.7541589906 -9.58E-05
    27 OT DIIS     0.80E-01    3.3     0.00002546     -1636.7542731026 -1.14E-04
    28 OT DIIS     0.80E-01    3.2     0.00002635     -1636.7543471701 -7.41E-05
    29 OT DIIS     0.80E-01    3.2     0.00002316     -1636.7544284435 -8.13E-05
    30 OT DIIS     0.80E-01    3.3     0.00002319     -1636.7544890862 -6.06E-05
    31 OT DIIS     0.80E-01    3.3     0.00002248     -1636.7545509770 -6.19E-05
    32 OT DIIS     0.80E-01    3.2     0.00002263     -1636.7546391559 -8.82E-05
    33 OT DIIS     0.80E-01    3.3     0.00002257     -1636.7547267205 -8.76E-05
    34 OT DIIS     0.80E-01    3.2     0.00002249     -1636.7548140229 -8.73E-05
    35 OT DIIS     0.80E-01    3.3     0.00002207     -1636.7549018652 -8.78E-05
    36 OT DIIS     0.80E-01    3.3     0.00002160     -1636.7550190649 -1.17E-04
    37 OT DIIS     0.80E-01    3.3     0.00002067     -1636.7551722797 -1.53E-04
    38 OT DIIS     0.80E-01    3.2     0.00002233     -1636.7553802041 -2.08E-04
    39 OT DIIS     0.80E-01    3.3     0.00002071     -1636.7555341583 -1.54E-04
    40 OT DIIS     0.80E-01    3.3     0.00001914     -1636.7557640954 -2.30E-04
    41 OT DIIS     0.80E-01    3.2     0.00001905     -1636.7559082203 -1.44E-04
    42 OT DIIS     0.80E-01    3.2     0.00001900     -1636.7560157109 -1.07E-04
    43 OT DIIS     0.80E-01    3.3     0.00001804     -1636.7560976355 -8.19E-05
    44 OT DIIS     0.80E-01    3.3     0.00001738     -1636.7562069325 -1.09E-04
    45 OT DIIS     0.80E-01    3.3     0.00001718     -1636.7562884929 -8.16E-05
    46 OT DIIS     0.80E-01    3.3     0.00001622     -1636.7563715191 -8.30E-05
    47 OT DIIS     0.80E-01    3.2     0.00001522     -1636.7564238098 -5.23E-05
    48 OT DIIS     0.80E-01    3.3     0.00001444     -1636.7564804861 -5.67E-05
    49 OT DIIS     0.80E-01    3.2     0.00001415     -1636.7565314943 -5.10E-05
    50 OT DIIS     0.80E-01    3.2     0.00001500     -1636.7565791970 -4.77E-05
    51 OT DIIS     0.80E-01    3.2     0.00001430     -1636.7566185914 -3.94E-05
    52 OT DIIS     0.80E-01    3.3     0.00001333     -1636.7566613835 -4.28E-05
    53 OT DIIS     0.80E-01    3.3     0.00001294     -1636.7566914896 -3.01E-05
    54 OT DIIS     0.80E-01    3.2     0.00001264     -1636.7567198692 -2.84E-05
    55 OT DIIS     0.80E-01    3.3     0.00001242     -1636.7567394356 -1.96E-05
    56 OT DIIS     0.80E-01    3.2     0.00001201     -1636.7567612444 -2.18E-05
    57 OT DIIS     0.80E-01    3.2     0.00001184     -1636.7567800806 -1.88E-05
    58 OT DIIS     0.80E-01    3.3     0.00001173     -1636.7567941395 -1.41E-05
    59 OT DIIS     0.80E-01    3.2     0.00001155     -1636.7568060821 -1.19E-05
    60 OT DIIS     0.80E-01    3.3     0.00001155     -1636.7568303296 -2.42E-05
    61 OT DIIS     0.80E-01    3.3     0.00001189     -1636.7568742174 -4.39E-05
    62 OT DIIS     0.80E-01    3.3     0.00001160     -1636.7569414751 -6.73E-05
    63 OT DIIS     0.80E-01    3.3     0.00001300     -1636.7570031461 -6.17E-05
    64 OT DIIS     0.80E-01    3.3     0.00001171     -1636.7570612149 -5.81E-05
    65 OT DIIS     0.80E-01    3.2     0.00001035     -1636.7570920997 -3.09E-05
    66 OT DIIS     0.80E-01    3.2     0.00001010     -1636.7571125301 -2.04E-05
    67 OT DIIS     0.80E-01    3.2     0.00000880     -1636.7571276782 -1.51E-05

  *** SCF run converged in    67 steps ***


  Electronic density on regular grids:       -895.9999980658        0.0000019342
  Core density on regular grids:              895.9999999259       -0.0000000741
  Total charge density on r-space grids:        0.0000018602
  Total charge density g-space grids:           0.0000018602

  Overlap energy of the core charge distribution:               0.00005115720784
  Self energy of the core charge distribution:              -3531.67332257831958
  Core Hamiltonian energy:                                   1019.49909758604053
  Hartree energy:                                            1266.43537010127875
  Exchange-correlation energy:                               -390.18893437735233
  Dispersion energy:                                           -0.82938956701389

  Total energy:                                             -1636.75712767815844

  outer SCF iter =    1 RMS gradient =   0.88E-05 energy =      -1636.7571276782
  outer SCF loop converged in   1 iterations or   67 steps


 ENERGY| Total FORCE_EVAL ( QS ) energy [a.u.]:            -1636.757141118841446

 --------  Informations at step =    13 ------------
  Optimization Method        =                 BFGS
  Total Energy               =     -1636.7571411188
  Real energy change         =         0.0009922506
  Predicted change in energy =        -0.0000019529
  Scaling factor             =         0.0000000000
  Step size                  =         0.0016300873
  Trust radius               =         0.4724315332
  Decrease in energy         =                   NO
  Used time                  =              228.834

  Convergence check :
  Max. step size             =         0.0016300873
  Conv. limit for step size  =         0.0010000000
  Convergence in step size   =                   NO
  RMS step size              =         0.0003655848
  Conv. limit for RMS step   =         0.0015000000
  Convergence in RMS step    =                  YES
  Max. gradient              =         0.0001506081
  Conv. limit for gradients  =         0.0004500000
  Conv. in gradients         =                  YES
  RMS gradient               =         0.0000190712
  Conv. limit for RMS grad.  =         0.0003000000
  Conv. in RMS gradients     =                  YES
 ---------------------------------------------------

 --------------------------
 OPTIMIZATION STEP:     14
 --------------------------

 Number of electrons:                                                        896
 Number of occupied orbitals:                                                448
 Number of molecular orbitals:                                               448

 Number of orbital functions:                                               2720
 Number of independent orbital functions:                                   2720

 Extrapolation method: ASPC


 SCF WAVEFUNCTION OPTIMIZATION

  ----------------------------------- OT ---------------------------------------
  Minimizer      : DIIS                : direct inversion
                                         in the iterative subspace
                                         using   7 DIIS vectors
                                         safer DIIS on
  Preconditioner : FULL_SINGLE_INVERSE : inversion of 
                                         H + eS - 2*(Sc)(c^T*H*c+const)(Sc)^T
  Precond_solver : DEFAULT
  stepsize       :    0.08000000                  energy_gap     :    0.08000000
  eps_taylor     :   0.10000E-15                  max_taylor     :             4
  ----------------------------------- OT ---------------------------------------

  Step     Update method      Time    Convergence         Total energy    Change
  ------------------------------------------------------------------------------
     1 OT DIIS     0.80E-01    4.5     0.00036239     -1636.7442788093 -1.64E+03
     2 OT DIIS     0.80E-01    3.2     0.00030666     -1636.7494460130 -5.17E-03
     3 OT DIIS     0.80E-01    3.2     0.00014144     -1636.7518189135 -2.37E-03
     4 OT DIIS     0.80E-01    3.2     0.00013369     -1636.7528926776 -1.07E-03
     5 OT DIIS     0.80E-01    3.1     0.00007853     -1636.7533263445 -4.34E-04
     6 OT DIIS     0.80E-01    3.2     0.00005766     -1636.7535752705 -2.49E-04
     7 OT DIIS     0.80E-01    3.2     0.00005213     -1636.7539710967 -3.96E-04
     8 OT DIIS     0.80E-01    3.2     0.00004691     -1636.7543407179 -3.70E-04
     9 OT DIIS     0.80E-01    3.4     0.00004037     -1636.7546876508 -3.47E-04
    10 OT DIIS     0.80E-01    3.2     0.00003658     -1636.7549736785 -2.86E-04
    11 OT DIIS     0.80E-01    3.3     0.00003313     -1636.7552182035 -2.45E-04
    12 OT DIIS     0.80E-01    3.3     0.00003045     -1636.7555908508 -3.73E-04
    13 OT DIIS     0.80E-01    3.3     0.00003439     -1636.7557658261 -1.75E-04
    14 OT DIIS     0.80E-01    3.2     0.00002658     -1636.7559427870 -1.77E-04
    15 OT DIIS     0.80E-01    3.2     0.00002095     -1636.7560923021 -1.50E-04
    16 OT DIIS     0.80E-01    3.2     0.00001873     -1636.7561654602 -7.32E-05
    17 OT DIIS     0.80E-01    3.3     0.00001744     -1636.7562319676 -6.65E-05
    18 OT DIIS     0.80E-01    3.3     0.00001710     -1636.7562810587 -4.91E-05
    19 OT DIIS     0.80E-01    3.3     0.00001642     -1636.7563366475 -5.56E-05
    20 OT DIIS     0.80E-01    3.2     0.00001519     -1636.7563910061 -5.44E-05
    21 OT DIIS     0.80E-01    3.2     0.00001546     -1636.7564255103 -3.45E-05
    22 OT DIIS     0.80E-01    3.3     0.00001460     -1636.7564551151 -2.96E-05
    23 OT DIIS     0.80E-01    3.3     0.00001402     -1636.7564917356 -3.66E-05
    24 OT DIIS     0.80E-01    3.3     0.00001366     -1636.7565327805 -4.10E-05
    25 OT DIIS     0.80E-01    3.2     0.00001321     -1636.7565959378 -6.32E-05
    26 OT DIIS     0.80E-01    3.3     0.00001303     -1636.7566396439 -4.37E-05
    27 OT DIIS     0.80E-01    3.3     0.00001257     -1636.7566875031 -4.79E-05
    28 OT DIIS     0.80E-01    3.3     0.00001222     -1636.7567316768 -4.42E-05
    29 OT DIIS     0.80E-01    3.3     0.00001225     -1636.7567802334 -4.86E-05
    30 OT DIIS     0.80E-01    3.3     0.00001212     -1636.7568220195 -4.18E-05
    31 OT DIIS     0.80E-01    3.2     0.00001158     -1636.7568723541 -5.03E-05
    32 OT DIIS     0.80E-01    3.3     0.00001131     -1636.7569160725 -4.37E-05
    33 OT DIIS     0.80E-01    3.3     0.00001082     -1636.7569512801 -3.52E-05
    34 OT DIIS     0.80E-01    3.3     0.00001085     -1636.7569785566 -2.73E-05
    35 OT DIIS     0.80E-01    3.2     0.00001068     -1636.7570124463 -3.39E-05
    36 OT DIIS     0.80E-01    3.2     0.00001013     -1636.7570481793 -3.57E-05
    37 OT DIIS     0.80E-01    3.4     0.00000991     -1636.7570854641 -3.73E-05

  *** SCF run converged in    37 steps ***


  Electronic density on regular grids:       -895.9999979945        0.0000020055
  Core density on regular grids:              895.9999999259       -0.0000000741
  Total charge density on r-space grids:        0.0000019314
  Total charge density g-space grids:           0.0000019314

  Overlap energy of the core charge distribution:               0.00005119101125
  Self energy of the core charge distribution:              -3531.67332257831958
  Core Hamiltonian energy:                                   1019.49160760163306
  Hartree energy:                                            1266.44222412937052
  Exchange-correlation energy:                               -390.18825721700557
  Dispersion energy:                                           -0.82938859083305

  Total energy:                                             -1636.75708546414376

  outer SCF iter =    1 RMS gradient =   0.99E-05 energy =      -1636.7570854641
  outer SCF loop converged in   1 iterations or   37 steps


 ENERGY| Total FORCE_EVAL ( QS ) energy [a.u.]:            -1636.757114522400343

 --------  Informations at step =    14 ------------
  Optimization Method        =                 BFGS
  Total Energy               =     -1636.7571145224
  Real energy change         =         0.0000265964
  Predicted change in energy =        -0.0000010829
  Scaling factor             =         0.0000000000
  Step size                  =         0.0016480190
  Trust radius               =         0.4724315332
  Decrease in energy         =                   NO
  Used time                  =              130.634

  Convergence check :
  Max. step size             =         0.0016480190
  Conv. limit for step size  =         0.0010000000
  Convergence in step size   =                   NO
  RMS step size              =         0.0002526284
  Conv. limit for RMS step   =         0.0015000000
  Convergence in RMS step    =                  YES
  Max. gradient              =         0.0000710397
  Conv. limit for gradients  =         0.0004500000
  Conv. in gradients         =                  YES
  RMS gradient               =         0.0000110234
  Conv. limit for RMS grad.  =         0.0003000000
  Conv. in RMS gradients     =                  YES
 ---------------------------------------------------

 --------------------------
 OPTIMIZATION STEP:     15
 --------------------------

 Number of electrons:                                                        896
 Number of occupied orbitals:                                                448
 Number of molecular orbitals:                                               448

 Number of orbital functions:                                               2720
 Number of independent orbital functions:                                   2720

 Extrapolation method: ASPC


 SCF WAVEFUNCTION OPTIMIZATION

  ----------------------------------- OT ---------------------------------------
  Minimizer      : DIIS                : direct inversion
                                         in the iterative subspace
                                         using   7 DIIS vectors
                                         safer DIIS on
  Preconditioner : FULL_SINGLE_INVERSE : inversion of 
                                         H + eS - 2*(Sc)(c^T*H*c+const)(Sc)^T
  Precond_solver : DEFAULT
  stepsize       :    0.08000000                  energy_gap     :    0.08000000
  eps_taylor     :   0.10000E-15                  max_taylor     :             4
  ----------------------------------- OT ---------------------------------------

  Step     Update method      Time    Convergence         Total energy    Change
  ------------------------------------------------------------------------------
     1 OT DIIS     0.80E-01    4.8     0.00012174     -1636.7540578506 -1.64E+03
     2 OT DIIS     0.80E-01    3.2     0.00011114     -1636.7547462402 -6.88E-04
     3 OT DIIS     0.80E-01    3.0     0.00008155     -1636.7550587915 -3.13E-04
     4 OT DIIS     0.80E-01    3.0     0.00007047     -1636.7552899175 -2.31E-04
     5 OT DIIS     0.80E-01    3.0     0.00004749     -1636.7556053770 -3.15E-04
     6 OT DIIS     0.80E-01    3.0     0.00004126     -1636.7558078330 -2.02E-04
     7 OT DIIS     0.80E-01    3.0     0.00003903     -1636.7559647306 -1.57E-04
     8 OT DIIS     0.80E-01    3.3     0.00003495     -1636.7561520588 -1.87E-04
     9 OT DIIS     0.80E-01    3.2     0.00003331     -1636.7563566752 -2.05E-04
    10 OT DIIS     0.80E-01    3.2     0.00003052     -1636.7565905354 -2.34E-04
    11 OT DIIS     0.80E-01    3.3     0.00002442     -1636.7567945953 -2.04E-04
    12 OT DIIS     0.80E-01    3.2     0.00002333     -1636.7569329436 -1.38E-04
    13 OT DIIS     0.80E-01    3.2     0.00002282     -1636.7570312486 -9.83E-05
    14 OT DIIS     0.80E-01    3.2     0.00002010     -1636.7571172145 -8.60E-05
    15 OT DIIS     0.80E-01    3.3     0.00001836     -1636.7571780363 -6.08E-05
    16 OT DIIS     0.80E-01    3.3     0.00001571     -1636.7572428079 -6.48E-05
    17 OT DIIS     0.80E-01    3.2     0.00001500     -1636.7573020498 -5.92E-05
    18 OT DIIS     0.80E-01    3.1     0.00001454     -1636.7573401944 -3.81E-05
    19 OT DIIS     0.80E-01    3.2     0.00001404     -1636.7573780486 -3.79E-05
    20 OT DIIS     0.80E-01    3.2     0.00001393     -1636.7574125019 -3.45E-05
    21 OT DIIS     0.80E-01    3.2     0.00001386     -1636.7574371115 -2.46E-05
    22 OT DIIS     0.80E-01    3.1     0.00001348     -1636.7574631337 -2.60E-05
    23 OT DIIS     0.80E-01    3.2     0.00001343     -1636.7574844629 -2.13E-05
    24 OT DIIS     0.80E-01    3.2     0.00001309     -1636.7575067081 -2.22E-05
    25 OT DIIS     0.80E-01    3.3     0.00001294     -1636.7575365402 -2.98E-05
    26 OT DIIS     0.80E-01    3.1     0.00001288     -1636.7575640578 -2.75E-05
    27 OT DIIS     0.80E-01    3.2     0.00001269     -1636.7576006551 -3.66E-05
    28 OT DIIS     0.80E-01    3.2     0.00001255     -1636.7576364325 -3.58E-05
    29 OT DIIS     0.80E-01    3.2     0.00001281     -1636.7576772620 -4.08E-05
    30 OT DIIS     0.80E-01    3.2     0.00001226     -1636.7577274369 -5.02E-05
    31 OT DIIS     0.80E-01    3.1     0.00001246     -1636.7577771056 -4.97E-05
    32 OT DIIS     0.80E-01    3.3     0.00001123     -1636.7578252599 -4.82E-05
    33 OT DIIS     0.80E-01    3.2     0.00001045     -1636.7578856785 -6.04E-05
    34 OT DIIS     0.80E-01    3.2     0.00000994     -1636.7579203774 -3.47E-05

  *** SCF run converged in    34 steps ***


  Electronic density on regular grids:       -895.9999981744        0.0000018256
  Core density on regular grids:              895.9999999259       -0.0000000741
  Total charge density on r-space grids:        0.0000017516
  Total charge density g-space grids:           0.0000017516

  Overlap energy of the core charge distribution:               0.00005120794426
  Self energy of the core charge distribution:              -3531.67332257831958
  Core Hamiltonian energy:                                   1019.52871152001228
  Hartree energy:                                            1266.41128621329426
  Exchange-correlation energy:                               -390.19525853341452
  Dispersion energy:                                           -0.82938820686864

  Total energy:                                             -1636.75792037735209

  outer SCF iter =    1 RMS gradient =   0.99E-05 energy =      -1636.7579203774
  outer SCF loop converged in   1 iterations or   34 steps


 ENERGY| Total FORCE_EVAL ( QS ) energy [a.u.]:            -1636.757950680931117

 --------  Informations at step =    15 ------------
  Optimization Method        =                 BFGS
  Total Energy               =     -1636.7579506809
  Real energy change         =        -0.0008361585
  Predicted change in energy =        -0.0000004824
  Scaling factor             =         0.0000000000
  Step size                  =         0.0010115099
  Trust radius               =         0.4724315332
  Decrease in energy         =                   NO
  Used time                  =              118.597

  Convergence check :
  Max. step size             =         0.0010115099
  Conv. limit for step size  =         0.0010000000
  Convergence in step size   =                   NO
  RMS step size              =         0.0001607484
  Conv. limit for RMS step   =         0.0015000000
  Convergence in RMS step    =                  YES
  Max. gradient              =         0.0000816827
  Conv. limit for gradients  =         0.0004500000
  Conv. in gradients         =                  YES
  RMS gradient               =         0.0000126439
  Conv. limit for RMS grad.  =         0.0003000000
  Conv. in RMS gradients     =                  YES
 ---------------------------------------------------

 --------------------------
 OPTIMIZATION STEP:     16
 --------------------------

 Number of electrons:                                                        896
 Number of occupied orbitals:                                                448
 Number of molecular orbitals:                                               448

 Number of orbital functions:                                               2720
 Number of independent orbital functions:                                   2720

 Extrapolation method: ASPC


 SCF WAVEFUNCTION OPTIMIZATION

  ----------------------------------- OT ---------------------------------------
  Minimizer      : DIIS                : direct inversion
                                         in the iterative subspace
                                         using   7 DIIS vectors
                                         safer DIIS on
  Preconditioner : FULL_SINGLE_INVERSE : inversion of 
                                         H + eS - 2*(Sc)(c^T*H*c+const)(Sc)^T
  Precond_solver : DEFAULT
  stepsize       :    0.08000000                  energy_gap     :    0.08000000
  eps_taylor     :   0.10000E-15                  max_taylor     :             4
  ----------------------------------- OT ---------------------------------------

  Step     Update method      Time    Convergence         Total energy    Change
  ------------------------------------------------------------------------------
     1 OT DIIS     0.80E-01    4.7     0.00029772     -1636.7520367510 -1.64E+03
     2 OT DIIS     0.80E-01    3.2     0.00025277     -1636.7550230469 -2.99E-03
     3 OT DIIS     0.80E-01    3.2     0.00011127     -1636.7566356859 -1.61E-03
     4 OT DIIS     0.80E-01    3.2     0.00009083     -1636.7572726319 -6.37E-04
     5 OT DIIS     0.80E-01    3.2     0.00007277     -1636.7575889968 -3.16E-04
     6 OT DIIS     0.80E-01    3.2     0.00003759     -1636.7577801235 -1.91E-04
     7 OT DIIS     0.80E-01    3.2     0.00003349     -1636.7579270200 -1.47E-04
     8 OT DIIS     0.80E-01    3.2     0.00003043     -1636.7580736351 -1.47E-04
     9 OT DIIS     0.80E-01    3.3     0.00002707     -1636.7581492351 -7.56E-05
    10 OT DIIS     0.80E-01    3.2     0.00002370     -1636.7582712318 -1.22E-04
    11 OT DIIS     0.80E-01    3.2     0.00002346     -1636.7583466299 -7.54E-05
    12 OT DIIS     0.80E-01    3.3     0.00002168     -1636.7584859640 -1.39E-04
    13 OT DIIS     0.80E-01    3.2     0.00002248     -1636.7586165617 -1.31E-04
    14 OT DIIS     0.80E-01    3.2     0.00002081     -1636.7587350417 -1.18E-04
    15 OT DIIS     0.80E-01    3.2     0.00001792     -1636.7588927985 -1.58E-04
    16 OT DIIS     0.80E-01    3.4     0.00001695     -1636.7590071396 -1.14E-04
    17 OT DIIS     0.80E-01    3.2     0.00001563     -1636.7591325574 -1.25E-04
    18 OT DIIS     0.80E-01    3.3     0.00001460     -1636.7592080651 -7.55E-05
    19 OT DIIS     0.80E-01    3.2     0.00001386     -1636.7592809750 -7.29E-05
    20 OT DIIS     0.80E-01    3.3     0.00001223     -1636.7593361350 -5.52E-05
    21 OT DIIS     0.80E-01    3.3     0.00001193     -1636.7593691490 -3.30E-05
    22 OT DIIS     0.80E-01    3.3     0.00001161     -1636.7593931854 -2.40E-05
    23 OT DIIS     0.80E-01    3.3     0.00001079     -1636.7594202006 -2.70E-05
    24 OT DIIS     0.80E-01    3.2     0.00001057     -1636.7594462995 -2.61E-05
    25 OT DIIS     0.80E-01    3.4     0.00001006     -1636.7594860031 -3.97E-05
    26 OT DIIS     0.80E-01    3.3     0.00000992     -1636.7595084147 -2.24E-05

  *** SCF run converged in    26 steps ***


  Electronic density on regular grids:       -895.9999981138        0.0000018862
  Core density on regular grids:              895.9999999259       -0.0000000741
  Total charge density on r-space grids:        0.0000018121
  Total charge density g-space grids:           0.0000018121

  Overlap energy of the core charge distribution:               0.00005121999511
  Self energy of the core charge distribution:              -3531.67332257831958
  Core Hamiltonian energy:                                   1019.55592348930691
  Hartree energy:                                            1266.38459826832741
  Exchange-correlation energy:                               -390.19737098782355
  Dispersion energy:                                           -0.82938782616144

  Total energy:                                             -1636.75950841467534

  outer SCF iter =    1 RMS gradient =   0.99E-05 energy =      -1636.7595084147
  outer SCF loop converged in   1 iterations or   26 steps


 ENERGY| Total FORCE_EVAL ( QS ) energy [a.u.]:            -1636.759542391519517

 --------  Informations at step =    16 ------------
  Optimization Method        =                 BFGS
  Total Energy               =     -1636.7595423915
  Real energy change         =        -0.0015917106
  Predicted change in energy =        -0.0000006913
  Scaling factor             =         0.0000000000
  Step size                  =         0.0017707287
  Trust radius               =         0.4724315332
  Decrease in energy         =                  YES
  Used time                  =               94.897

  Convergence check :
  Max. step size             =         0.0017707287
  Conv. limit for step size  =         0.0010000000
  Convergence in step size   =                   NO
  RMS step size              =         0.0003495284
  Conv. limit for RMS step   =         0.0015000000
  Convergence in RMS step    =                  YES
  Max. gradient              =         0.0001019502
  Conv. limit for gradients  =         0.0004500000
  Conv. in gradients         =                  YES
  RMS gradient               =         0.0000142505
  Conv. limit for RMS grad.  =         0.0003000000
  Conv. in RMS gradients     =                  YES
 ---------------------------------------------------

 --------------------------
 OPTIMIZATION STEP:     17
 --------------------------

 Number of electrons:                                                        896
 Number of occupied orbitals:                                                448
 Number of molecular orbitals:                                               448

 Number of orbital functions:                                               2720
 Number of independent orbital functions:                                   2720

 Extrapolation method: ASPC


 SCF WAVEFUNCTION OPTIMIZATION

  ----------------------------------- OT ---------------------------------------
  Minimizer      : DIIS                : direct inversion
                                         in the iterative subspace
                                         using   7 DIIS vectors
                                         safer DIIS on
  Preconditioner : FULL_SINGLE_INVERSE : inversion of 
                                         H + eS - 2*(Sc)(c^T*H*c+const)(Sc)^T
  Precond_solver : DEFAULT
  stepsize       :    0.08000000                  energy_gap     :    0.08000000
  eps_taylor     :   0.10000E-15                  max_taylor     :             4
  ----------------------------------- OT ---------------------------------------

  Step     Update method      Time    Convergence         Total energy    Change
  ------------------------------------------------------------------------------
     1 OT DIIS     0.80E-01    4.8     0.00026253     -1636.7473741183 -1.64E+03
     2 OT DIIS     0.80E-01    3.2     0.00021733     -1636.7503059700 -2.93E-03
     3 OT DIIS     0.80E-01    3.2     0.00012694     -1636.7517473304 -1.44E-03
     4 OT DIIS     0.80E-01    3.2     0.00015021     -1636.7526627550 -9.15E-04
     5 OT DIIS     0.80E-01    3.3     0.00009029     -1636.7535442212 -8.81E-04
     6 OT DIIS     0.80E-01    3.2     0.00007383     -1636.7541226201 -5.78E-04
     7 OT DIIS     0.80E-01    3.3     0.00006796     -1636.7546991757 -5.77E-04
     8 OT DIIS     0.80E-01    3.3     0.00004834     -1636.7556098716 -9.11E-04
     9 OT DIIS     0.80E-01    3.3     0.00004871     -1636.7559680139 -3.58E-04
    10 OT DIIS     0.80E-01    3.2     0.00003817     -1636.7563268144 -3.59E-04
    11 OT DIIS     0.80E-01    3.1     0.00003393     -1636.7565392497 -2.12E-04
    12 OT DIIS     0.80E-01    3.3     0.00003184     -1636.7568286970 -2.89E-04
    13 OT DIIS     0.80E-01    3.3     0.00003290     -1636.7569647218 -1.36E-04
    14 OT DIIS     0.80E-01    3.3     0.00002710     -1636.7570685232 -1.04E-04
    15 OT DIIS     0.80E-01    3.2     0.00002407     -1636.7571732375 -1.05E-04
    16 OT DIIS     0.80E-01    3.4     0.00002137     -1636.7572443994 -7.12E-05
    17 OT DIIS     0.80E-01    3.3     0.00002106     -1636.7573359489 -9.15E-05
    18 OT DIIS     0.80E-01    3.2     0.00002049     -1636.7574066737 -7.07E-05
    19 OT DIIS     0.80E-01    3.2     0.00001953     -1636.7574790080 -7.23E-05
    20 OT DIIS     0.80E-01    3.3     0.00001852     -1636.7575890221 -1.10E-04
    21 OT DIIS     0.80E-01    3.2     0.00001913     -1636.7576474138 -5.84E-05
    22 OT DIIS     0.80E-01    3.3     0.00001852     -1636.7577167069 -6.93E-05
    23 OT DIIS     0.80E-01    3.3     0.00001774     -1636.7577999925 -8.33E-05
    24 OT DIIS     0.80E-01    3.3     0.00001674     -1636.7578676573 -6.77E-05
    25 OT DIIS     0.80E-01    3.3     0.00001589     -1636.7579887794 -1.21E-04
    26 OT DIIS     0.80E-01    3.2     0.00001553     -1636.7580572900 -6.85E-05
    27 OT DIIS     0.80E-01    3.3     0.00001437     -1636.7581132618 -5.60E-05
    28 OT DIIS     0.80E-01    3.3     0.00001364     -1636.7581829701 -6.97E-05
    29 OT DIIS     0.80E-01    3.3     0.00001407     -1636.7582198813 -3.69E-05
    30 OT DIIS     0.80E-01    3.3     0.00001356     -1636.7582619737 -4.21E-05
    31 OT DIIS     0.80E-01    3.3     0.00001320     -1636.7583068333 -4.49E-05
    32 OT DIIS     0.80E-01    3.3     0.00001262     -1636.7583407641 -3.39E-05
    33 OT DIIS     0.80E-01    3.3     0.00001202     -1636.7583984325 -5.77E-05
    34 OT DIIS     0.80E-01    3.3     0.00001183     -1636.7584307280 -3.23E-05
    35 OT DIIS     0.80E-01    3.4     0.00001135     -1636.7584622207 -3.15E-05
    36 OT DIIS     0.80E-01    3.3     0.00001077     -1636.7585094446 -4.72E-05
    37 OT DIIS     0.80E-01    3.3     0.00001127     -1636.7585392996 -2.99E-05
    38 OT DIIS     0.80E-01    3.3     0.00001071     -1636.7585690309 -2.97E-05
    39 OT DIIS     0.80E-01    3.3     0.00001034     -1636.7585938649 -2.48E-05
    40 OT DIIS     0.80E-01    3.2     0.00000962     -1636.7586088709 -1.50E-05

  *** SCF run converged in    40 steps ***


  Electronic density on regular grids:       -895.9999976113        0.0000023887
  Core density on regular grids:              895.9999999259       -0.0000000741
  Total charge density on r-space grids:        0.0000023146
  Total charge density g-space grids:           0.0000023146

  Overlap energy of the core charge distribution:               0.00005121424527
  Self energy of the core charge distribution:              -3531.67332257831958
  Core Hamiltonian energy:                                   1019.55545592556837
  Hartree energy:                                            1266.38447312446124
  Exchange-correlation energy:                               -390.19587850488500
  Dispersion energy:                                           -0.82938805192808

  Total energy:                                             -1636.75860887085810

  outer SCF iter =    1 RMS gradient =   0.96E-05 energy =      -1636.7586088709
  outer SCF loop converged in   1 iterations or   40 steps


 ENERGY| Total FORCE_EVAL ( QS ) energy [a.u.]:            -1636.758626318304778

 --------  Informations at step =    17 ------------
  Optimization Method        =                 BFGS
  Total Energy               =     -1636.7586263183
  Real energy change         =         0.0009160732
  Predicted change in energy =        -0.0000005298
  Scaling factor             =         0.0000000000
  Step size                  =         0.0017435479
  Trust radius               =         0.4724315332
  Decrease in energy         =                   NO
  Used time                  =              141.230

  Convergence check :
  Max. step size             =         0.0017435479
  Conv. limit for step size  =         0.0010000000
  Convergence in step size   =                   NO
  RMS step size              =         0.0003187962
  Conv. limit for RMS step   =         0.0015000000
  Convergence in RMS step    =                  YES
  Max. gradient              =         0.0000795726
  Conv. limit for gradients  =         0.0004500000
  Conv. in gradients         =                  YES
  RMS gradient               =         0.0000124481
  Conv. limit for RMS grad.  =         0.0003000000
  Conv. in RMS gradients     =                  YES
 ---------------------------------------------------

 --------------------------
 OPTIMIZATION STEP:     18
 --------------------------

 Number of electrons:                                                        896
 Number of occupied orbitals:                                                448
 Number of molecular orbitals:                                               448

 Number of orbital functions:                                               2720
 Number of independent orbital functions:                                   2720

 Extrapolation method: ASPC


 SCF WAVEFUNCTION OPTIMIZATION

  ----------------------------------- OT ---------------------------------------
  Minimizer      : DIIS                : direct inversion
                                         in the iterative subspace
                                         using   7 DIIS vectors
                                         safer DIIS on
  Preconditioner : FULL_SINGLE_INVERSE : inversion of 
                                         H + eS - 2*(Sc)(c^T*H*c+const)(Sc)^T
  Precond_solver : DEFAULT
  stepsize       :    0.08000000                  energy_gap     :    0.08000000
  eps_taylor     :   0.10000E-15                  max_taylor     :             4
  ----------------------------------- OT ---------------------------------------

  Step     Update method      Time    Convergence         Total energy    Change
  ------------------------------------------------------------------------------
     1 OT DIIS     0.80E-01    4.5     0.00022257     -1636.7450678751 -1.64E+03
     2 OT DIIS     0.80E-01    3.2     0.00021676     -1636.7471915828 -2.12E-03
     3 OT DIIS     0.80E-01    3.2     0.00013027     -1636.7483869623 -1.20E-03
     4 OT DIIS     0.80E-01    3.2     0.00016070     -1636.7491531242 -7.66E-04
     5 OT DIIS     0.80E-01    3.2     0.00008258     -1636.7501462278 -9.93E-04
     6 OT DIIS     0.80E-01    3.1     0.00007100     -1636.7507717054 -6.25E-04
     7 OT DIIS     0.80E-01    3.2     0.00006798     -1636.7513492307 -5.78E-04
     8 OT DIIS     0.80E-01    3.2     0.00005007     -1636.7519145085 -5.65E-04
     9 OT DIIS     0.80E-01    3.2     0.00004671     -1636.7523039815 -3.89E-04
    10 OT DIIS     0.80E-01    3.2     0.00004432     -1636.7526185470 -3.15E-04
    11 OT DIIS     0.80E-01    3.3     0.00004193     -1636.7529480689 -3.30E-04
    12 OT DIIS     0.80E-01    3.3     0.00004389     -1636.7534194539 -4.71E-04
    13 OT DIIS     0.80E-01    3.2     0.00004160     -1636.7536340685 -2.15E-04
    14 OT DIIS     0.80E-01    3.3     0.00003764     -1636.7539309579 -2.97E-04
    15 OT DIIS     0.80E-01    3.3     0.00003581     -1636.7541778200 -2.47E-04
    16 OT DIIS     0.80E-01    3.2     0.00003447     -1636.7543836833 -2.06E-04
    17 OT DIIS     0.80E-01    3.3     0.00003419     -1636.7546037124 -2.20E-04
    18 OT DIIS     0.80E-01    3.3     0.00003398     -1636.7547746006 -1.71E-04
    19 OT DIIS     0.80E-01    3.3     0.00003366     -1636.7549260822 -1.51E-04
    20 OT DIIS     0.80E-01    3.3     0.00003364     -1636.7551113795 -1.85E-04
    21 OT DIIS     0.80E-01    3.2     0.00003365     -1636.7551950646 -8.37E-05
    22 OT DIIS     0.80E-01    3.3     0.00003343     -1636.7553245120 -1.29E-04
    23 OT DIIS     0.80E-01    3.2     0.00003324     -1636.7554881562 -1.64E-04
    24 OT DIIS     0.80E-01    3.3     0.00003285     -1636.7557211794 -2.33E-04
    25 OT DIIS     0.80E-01    3.3     0.00003209     -1636.7562610011 -5.40E-04
    26 OT DIIS     0.80E-01    3.3     0.00003168     -1636.7571026470 -8.42E-04
    27 OT DIIS     0.80E-01    3.2     0.00002953     -1636.7579927269 -8.90E-04
    28 OT SD       0.80E-01    3.3     0.00002639     -1636.7583520742 -3.59E-04
    29 OT DIIS     0.80E-01    3.3     0.00006511     -1636.7583357781  1.63E-05
    30 OT DIIS     0.80E-01    3.3     0.00002090     -1636.7582768583  5.89E-05
    31 OT DIIS     0.80E-01    3.2     0.00001825     -1636.7584172976 -1.40E-04
    32 OT DIIS     0.80E-01    3.2     0.00001520     -1636.7584840712 -6.68E-05
    33 OT DIIS     0.80E-01    3.2     0.00001399     -1636.7585463087 -6.22E-05
    34 OT DIIS     0.80E-01    3.3     0.00001190     -1636.7585895845 -4.33E-05
    35 OT DIIS     0.80E-01    3.3     0.00001120     -1636.7586122851 -2.27E-05
    36 OT DIIS     0.80E-01    3.3     0.00001005     -1636.7586486687 -3.64E-05
    37 OT DIIS     0.80E-01    3.3     0.00001108     -1636.7586786150 -2.99E-05
    38 OT DIIS     0.80E-01    3.3     0.00001269     -1636.7587003422 -2.17E-05
    39 OT DIIS     0.80E-01    3.3     0.00001064     -1636.7587121544 -1.18E-05
    40 OT SD       0.80E-01    3.2     0.00000966     -1636.7587192519 -7.10E-06

  *** SCF run converged in    40 steps ***


  Electronic density on regular grids:       -895.9999973941        0.0000026059
  Core density on regular grids:              895.9999999259       -0.0000000741
  Total charge density on r-space grids:        0.0000025317
  Total charge density g-space grids:           0.0000025317

  Overlap energy of the core charge distribution:               0.00005119553636
  Self energy of the core charge distribution:              -3531.67332257831958
  Core Hamiltonian energy:                                   1019.55329421905424
  Hartree energy:                                            1266.38603932927322
  Exchange-correlation energy:                               -390.19539279590032
  Dispersion energy:                                           -0.82938862153645

  Total energy:                                             -1636.75871925189244

  outer SCF iter =    1 RMS gradient =   0.97E-05 energy =      -1636.7587192519
  outer SCF loop converged in   1 iterations or   40 steps


 ENERGY| Total FORCE_EVAL ( QS ) energy [a.u.]:            -1636.758727240540338

 --------  Informations at step =    18 ------------
  Optimization Method        =                 BFGS
  Total Energy               =     -1636.7587272405
  Real energy change         =        -0.0001009222
  Predicted change in energy =        -0.0000005346
  Scaling factor             =         0.0000000000
  Step size                  =         0.0016901003
  Trust radius               =         0.4724315332
  Decrease in energy         =                   NO
  Used time                  =              140.321

  Convergence check :
  Max. step size             =         0.0016901003
  Conv. limit for step size  =         0.0010000000
  Convergence in step size   =                   NO
  RMS step size              =         0.0003105631
  Conv. limit for RMS step   =         0.0015000000
  Convergence in RMS step    =                  YES
  Max. gradient              =         0.0000889677
  Conv. limit for gradients  =         0.0004500000
  Conv. in gradients         =                  YES
  RMS gradient               =         0.0000107060
  Conv. limit for RMS grad.  =         0.0003000000
  Conv. in RMS gradients     =                  YES
 ---------------------------------------------------

 --------------------------
 OPTIMIZATION STEP:     19
 --------------------------

 Number of electrons:                                                        896
 Number of occupied orbitals:                                                448
 Number of molecular orbitals:                                               448

 Number of orbital functions:                                               2720
 Number of independent orbital functions:                                   2720

 Extrapolation method: ASPC


 SCF WAVEFUNCTION OPTIMIZATION

  ----------------------------------- OT ---------------------------------------
  Minimizer      : DIIS                : direct inversion
                                         in the iterative subspace
                                         using   7 DIIS vectors
                                         safer DIIS on
  Preconditioner : FULL_SINGLE_INVERSE : inversion of 
                                         H + eS - 2*(Sc)(c^T*H*c+const)(Sc)^T
  Precond_solver : DEFAULT
  stepsize       :    0.08000000                  energy_gap     :    0.08000000
  eps_taylor     :   0.10000E-15                  max_taylor     :             4
  ----------------------------------- OT ---------------------------------------

  Step     Update method      Time    Convergence         Total energy    Change
  ------------------------------------------------------------------------------
     1 OT DIIS     0.80E-01    4.4     0.00024712     -1636.7482634323 -1.64E+03
     2 OT DIIS     0.80E-01    3.2     0.00022361     -1636.7506436621 -2.38E-03
     3 OT DIIS     0.80E-01    3.2     0.00011912     -1636.7519389479 -1.30E-03
     4 OT DIIS     0.80E-01    3.2     0.00013327     -1636.7525951375 -6.56E-04
     5 OT DIIS     0.80E-01    3.1     0.00006185     -1636.7532755823 -6.80E-04
     6 OT DIIS     0.80E-01    3.1     0.00005481     -1636.7535637906 -2.88E-04
     7 OT DIIS     0.80E-01    3.2     0.00004936     -1636.7539038637 -3.40E-04
     8 OT DIIS     0.80E-01    3.2     0.00004363     -1636.7543443314 -4.40E-04
     9 OT DIIS     0.80E-01    3.1     0.00004044     -1636.7546966876 -3.52E-04
    10 OT DIIS     0.80E-01    3.2     0.00003833     -1636.7550020486 -3.05E-04
    11 OT DIIS     0.80E-01    3.2     0.00003572     -1636.7552998784 -2.98E-04
    12 OT DIIS     0.80E-01    3.2     0.00003561     -1636.7558546042 -5.55E-04
    13 OT DIIS     0.80E-01    3.2     0.00003505     -1636.7560396305 -1.85E-04
    14 OT DIIS     0.80E-01    3.2     0.00003203     -1636.7562237472 -1.84E-04
    15 OT DIIS     0.80E-01    3.2     0.00003045     -1636.7563341568 -1.10E-04
    16 OT DIIS     0.80E-01    3.3     0.00002890     -1636.7565165191 -1.82E-04
    17 OT DIIS     0.80E-01    3.3     0.00002622     -1636.7569553709 -4.39E-04
    18 OT DIIS     0.80E-01    3.3     0.00002489     -1636.7571431351 -1.88E-04
    19 OT DIIS     0.80E-01    3.2     0.00002220     -1636.7573319873 -1.89E-04
    20 OT DIIS     0.80E-01    3.3     0.00002158     -1636.7574961269 -1.64E-04
    21 OT DIIS     0.80E-01    3.3     0.00002116     -1636.7575885823 -9.25E-05
    22 OT DIIS     0.80E-01    3.4     0.00001985     -1636.7577658925 -1.77E-04
    23 OT DIIS     0.80E-01    3.3     0.00001794     -1636.7579372090 -1.71E-04
    24 OT DIIS     0.80E-01    3.2     0.00001718     -1636.7580433110 -1.06E-04
    25 OT DIIS     0.80E-01    3.2     0.00001536     -1636.7581359386 -9.26E-05
    26 OT DIIS     0.80E-01    3.3     0.00001574     -1636.7582259946 -9.01E-05
    27 OT DIIS     0.80E-01    3.3     0.00001477     -1636.7583067631 -8.08E-05
    28 OT DIIS     0.80E-01    3.3     0.00001311     -1636.7583893679 -8.26E-05
    29 OT DIIS     0.80E-01    3.3     0.00001359     -1636.7584629949 -7.36E-05
    30 OT DIIS     0.80E-01    3.2     0.00001176     -1636.7585315115 -6.85E-05
    31 OT DIIS     0.80E-01    3.3     0.00001061     -1636.7585777949 -4.63E-05
    32 OT DIIS     0.80E-01    3.3     0.00000980     -1636.7586188298 -4.10E-05

  *** SCF run converged in    32 steps ***


  Electronic density on regular grids:       -895.9999974186        0.0000025814
  Core density on regular grids:              895.9999999259       -0.0000000741
  Total charge density on r-space grids:        0.0000025073
  Total charge density g-space grids:           0.0000025073

  Overlap energy of the core charge distribution:               0.00005118151827
  Self energy of the core charge distribution:              -3531.67332257831958
  Core Hamiltonian energy:                                   1019.55470319866640
  Hartree energy:                                            1266.38434508148566
  Exchange-correlation energy:                               -390.19500670596875
  Dispersion energy:                                           -0.82938900714212

  Total energy:                                             -1636.75861882976028

  outer SCF iter =    1 RMS gradient =   0.98E-05 energy =      -1636.7586188298
  outer SCF loop converged in   1 iterations or   32 steps


 ENERGY| Total FORCE_EVAL ( QS ) energy [a.u.]:            -1636.758639918918334

 --------  Informations at step =    19 ------------
  Optimization Method        =                 BFGS
  Total Energy               =     -1636.7586399189
  Real energy change         =         0.0000873216
  Predicted change in energy =        -0.0000004024
  Scaling factor             =         0.0000000000
  Step size                  =         0.0011162293
  Trust radius               =         0.4724315332
  Decrease in energy         =                   NO
  Used time                  =              113.584

  Convergence check :
  Max. step size             =         0.0011162293
  Conv. limit for step size  =         0.0010000000
  Convergence in step size   =                   NO
  RMS step size              =         0.0002337524
  Conv. limit for RMS step   =         0.0015000000
  Convergence in RMS step    =                  YES
  Max. gradient              =         0.0000715820
  Conv. limit for gradients  =         0.0004500000
  Conv. in gradients         =                  YES
  RMS gradient               =         0.0000095669
  Conv. limit for RMS grad.  =         0.0003000000
  Conv. in RMS gradients     =                  YES
 ---------------------------------------------------

 --------------------------
 OPTIMIZATION STEP:     20
 --------------------------

 Number of electrons:                                                        896
 Number of occupied orbitals:                                                448
 Number of molecular orbitals:                                               448

 Number of orbital functions:                                               2720
 Number of independent orbital functions:                                   2720

 Extrapolation method: ASPC


 SCF WAVEFUNCTION OPTIMIZATION

  ----------------------------------- OT ---------------------------------------
  Minimizer      : DIIS                : direct inversion
                                         in the iterative subspace
                                         using   7 DIIS vectors
                                         safer DIIS on
  Preconditioner : FULL_SINGLE_INVERSE : inversion of 
                                         H + eS - 2*(Sc)(c^T*H*c+const)(Sc)^T
  Precond_solver : DEFAULT
  stepsize       :    0.08000000                  energy_gap     :    0.08000000
  eps_taylor     :   0.10000E-15                  max_taylor     :             4
  ----------------------------------- OT ---------------------------------------

  Step     Update method      Time    Convergence         Total energy    Change
  ------------------------------------------------------------------------------
     1 OT DIIS     0.80E-01    4.8     0.00011889     -1636.7556084334 -1.64E+03
     2 OT DIIS     0.80E-01    3.2     0.00011178     -1636.7562145030 -6.06E-04
     3 OT DIIS     0.80E-01    3.2     0.00006920     -1636.7565268044 -3.12E-04
     4 OT DIIS     0.80E-01    3.2     0.00006385     -1636.7567410344 -2.14E-04
     5 OT DIIS     0.80E-01    3.2     0.00003975     -1636.7569922229 -2.51E-04
     6 OT DIIS     0.80E-01    3.2     0.00003737     -1636.7571122164 -1.20E-04
     7 OT DIIS     0.80E-01    3.2     0.00003376     -1636.7573058289 -1.94E-04
     8 OT DIIS     0.80E-01    3.2     0.00002962     -1636.7575897353 -2.84E-04
     9 OT DIIS     0.80E-01    3.2     0.00002879     -1636.7577577575 -1.68E-04
    10 OT DIIS     0.80E-01    3.1     0.00002510     -1636.7579270639 -1.69E-04
    11 OT DIIS     0.80E-01    3.2     0.00002306     -1636.7580862736 -1.59E-04
    12 OT DIIS     0.80E-01    3.2     0.00002355     -1636.7583407759 -2.55E-04
    13 OT DIIS     0.80E-01    3.3     0.00002077     -1636.7584338446 -9.31E-05
    14 OT DIIS     0.80E-01    3.2     0.00001908     -1636.7585467031 -1.13E-04
    15 OT DIIS     0.80E-01    3.2     0.00001418     -1636.7586121422 -6.54E-05
    16 OT DIIS     0.80E-01    3.2     0.00001221     -1636.7586468439 -3.47E-05
    17 OT DIIS     0.80E-01    3.2     0.00001162     -1636.7586789105 -3.21E-05
    18 OT DIIS     0.80E-01    3.2     0.00001098     -1636.7586957093 -1.68E-05
    19 OT DIIS     0.80E-01    3.2     0.00000946     -1636.7587189049 -2.32E-05

  *** SCF run converged in    19 steps ***


  Electronic density on regular grids:       -895.9999975464        0.0000024536
  Core density on regular grids:              895.9999999259       -0.0000000741
  Total charge density on r-space grids:        0.0000023794
  Total charge density g-space grids:           0.0000023794

  Overlap energy of the core charge distribution:               0.00005118188488
  Self energy of the core charge distribution:              -3531.67332257831958
  Core Hamiltonian energy:                                   1019.55582047846497
  Hartree energy:                                            1266.38356167578559
  Exchange-correlation energy:                               -390.19544076304055
  Dispersion energy:                                           -0.82938889970559

  Total energy:                                             -1636.75871890493067

  outer SCF iter =    1 RMS gradient =   0.95E-05 energy =      -1636.7587189049
  outer SCF loop converged in   1 iterations or   19 steps


 ENERGY| Total FORCE_EVAL ( QS ) energy [a.u.]:            -1636.758737185195059

 --------  Informations at step =    20 ------------
  Optimization Method        =                 BFGS
  Total Energy               =     -1636.7587371852
  Real energy change         =        -0.0000972663
  Predicted change in energy =        -0.0000002404
  Scaling factor             =         0.0000000000
  Step size                  =         0.0008604227
  Trust radius               =         0.4724315332
  Decrease in energy         =                   NO
  Used time                  =               71.039

  Convergence check :
  Max. step size             =         0.0008604227
  Conv. limit for step size  =         0.0010000000
  Convergence in step size   =                  YES
  RMS step size              =         0.0001764293
  Conv. limit for RMS step   =         0.0015000000
  Convergence in RMS step    =                  YES
  Max. gradient              =         0.0000380392
  Conv. limit for gradients  =         0.0004500000
  Conv. in gradients         =                  YES
  RMS gradient               =         0.0000066687
  Conv. limit for RMS grad.  =         0.0003000000
  Conv. in RMS gradients     =                  YES
 ---------------------------------------------------

 *******************************************************************************
 ***                    GEOMETRY OPTIMIZATION COMPLETED                      ***
 *******************************************************************************

                    Reevaluating energy at the minimum

 Number of electrons:                                                        896
 Number of occupied orbitals:                                                448
 Number of molecular orbitals:                                               448

 Number of orbital functions:                                               2720
 Number of independent orbital functions:                                   2720

 Extrapolation method: ASPC


 SCF WAVEFUNCTION OPTIMIZATION

  ----------------------------------- OT ---------------------------------------
  Minimizer      : DIIS                : direct inversion
                                         in the iterative subspace
                                         using   7 DIIS vectors
                                         safer DIIS on
  Preconditioner : FULL_SINGLE_INVERSE : inversion of 
                                         H + eS - 2*(Sc)(c^T*H*c+const)(Sc)^T
  Precond_solver : DEFAULT
  stepsize       :    0.08000000                  energy_gap     :    0.08000000
  eps_taylor     :   0.10000E-15                  max_taylor     :             4
  ----------------------------------- OT ---------------------------------------

  Step     Update method      Time    Convergence         Total energy    Change
  ------------------------------------------------------------------------------
     1 OT DIIS     0.80E-01    4.4     0.00011496     -1636.7543579586 -1.64E+03
     2 OT DIIS     0.80E-01    3.3     0.00010903     -1636.7550268259 -6.69E-04
     3 OT DIIS     0.80E-01    3.1     0.00007665     -1636.7553682566 -3.41E-04
     4 OT DIIS     0.80E-01    3.2     0.00007168     -1636.7556854587 -3.17E-04
     5 OT DIIS     0.80E-01    3.2     0.00005152     -1636.7561563505 -4.71E-04
     6 OT DIIS     0.80E-01    3.2     0.00004983     -1636.7564404867 -2.84E-04
     7 OT DIIS     0.80E-01    3.2     0.00004421     -1636.7568685524 -4.28E-04
     8 OT DIIS     0.80E-01    3.2     0.00003567     -1636.7575479993 -6.79E-04
     9 OT DIIS     0.80E-01    3.3     0.00003333     -1636.7578568549 -3.09E-04
    10 OT DIIS     0.80E-01    3.4     0.00002714     -1636.7580569915 -2.00E-04
    11 OT DIIS     0.80E-01    3.3     0.00002274     -1636.7582449080 -1.88E-04
    12 OT DIIS     0.80E-01    3.3     0.00001742     -1636.7584099595 -1.65E-04
    13 OT DIIS     0.80E-01    3.2     0.00001696     -1636.7584515559 -4.16E-05
    14 OT DIIS     0.80E-01    3.3     0.00001126     -1636.7584756311 -2.41E-05
    15 OT DIIS     0.80E-01    3.3     0.00001008     -1636.7584842917 -8.66E-06
    16 OT DIIS     0.80E-01    3.3     0.00000904     -1636.7584933356 -9.04E-06

  *** SCF run converged in    16 steps ***


  Electronic density on regular grids:       -895.9999976693        0.0000023307
  Core density on regular grids:              895.9999999259       -0.0000000741
  Total charge density on r-space grids:        0.0000022566
  Total charge density g-space grids:           0.0000022566

  Overlap energy of the core charge distribution:               0.00005118188488
  Self energy of the core charge distribution:              -3531.67332257831958
  Core Hamiltonian energy:                                   1019.54415662989027
  Hartree energy:                                            1266.39445659717649
  Exchange-correlation energy:                               -390.19444626650898
  Dispersion energy:                                           -0.82938889970559

  Total energy:                                             -1636.75849333558244

  outer SCF iter =    1 RMS gradient =   0.90E-05 energy =      -1636.7584933356
  outer SCF loop converged in   1 iterations or   16 steps


 ENERGY| Total FORCE_EVAL ( QS ) energy [a.u.]:            -1636.758493335582443

 -------------------------------------------------------------------------------
 -                                                                             -
 -                                DBCSR STATISTICS                             -
 -                                                                             -
 -------------------------------------------------------------------------------
 COUNTER                                    TOTAL       BLAS       SMM       ACC
 flops    47 x    32 x    32           1940520960     100.0%      0.0%      0.0%
 flops    32 x    32 x   422           2177925120     100.0%      0.0%      0.0%
 flops    32 x    32 x   427           2203729920     100.0%      0.0%      0.0%
 flops     5 x    32 x    32           6812467200     100.0%      0.0%      0.0%
 flops    32 x    32 x   469           7261470720     100.0%      0.0%      0.0%
 flops    47 x    47 x    96          13317619200     100.0%      0.0%      0.0%
 flops    47 x    47 x    64          17756825600     100.0%      0.0%      0.0%
 flops    13 x    32 x    32          19322634240     100.0%      0.0%      0.0%
 flops     5 x    47 x    96          32990661120     100.0%      0.0%      0.0%
 flops    47 x     5 x    96          37402675200     100.0%      0.0%      0.0%
 flops     5 x    47 x    64          43987548160     100.0%      0.0%      0.0%
 flops    47 x     5 x    64          49870233600     100.0%      0.0%      0.0%
 flops    13 x    47 x    96          84323865600     100.0%      0.0%      0.0%
 flops     5 x     5 x    96          95740588800     100.0%      0.0%      0.0%
 flops    47 x    32 x    47         101306648576     100.0%      0.0%      0.0%
 flops    47 x    13 x    96         106087587840     100.0%      0.0%      0.0%
 flops    13 x    47 x    64         112431820800     100.0%      0.0%      0.0%
 flops     5 x     5 x    64         127654118400     100.0%      0.0%      0.0%
 flops    47 x    13 x    64         141450117120     100.0%      0.0%      0.0%
 flops    13 x     5 x    96         159950269440     100.0%      0.0%      0.0%
 flops    13 x     5 x    64         213267025920     100.0%      0.0%      0.0%
 flops    47 x    32 x     5         334346539520     100.0%      0.0%      0.0%
 flops     5 x    32 x    47         334346539520     100.0%      0.0%      0.0%
 flops     5 x    13 x    96         341454497280     100.0%      0.0%      0.0%
 flops    96 x   224 x    96         413768613888     100.0%      0.0%      0.0%
 flops     5 x    13 x    64         455272663040     100.0%      0.0%      0.0%
 flops   386 x   224 x   435         459466237440     100.0%      0.0%      0.0%
 flops   399 x   224 x   435         474940488960     100.0%      0.0%      0.0%
 flops   402 x   224 x   435         478511470080     100.0%      0.0%      0.0%
 flops   386 x   224 x   456         481647366144     100.0%      0.0%      0.0%
 flops   386 x   224 x   469         495378541056     100.0%      0.0%      0.0%
 flops   386 x   224 x    96         495841296384     100.0%      0.0%      0.0%
 flops   399 x   224 x   456         497868650496     100.0%      0.0%      0.0%
 flops   402 x   224 x   456         501612023808     100.0%      0.0%      0.0%
 flops   399 x   224 x   469         512062274304     100.0%      0.0%      0.0%
 flops   399 x   224 x    96         512540614656     100.0%      0.0%      0.0%
 flops   402 x   224 x   469         515912366592     100.0%      0.0%      0.0%
 flops   402 x   224 x    96         516394303488     100.0%      0.0%      0.0%
 flops    64 x   224 x    96         551691485184     100.0%      0.0%      0.0%
 flops    96 x   224 x    64         551691485184     100.0%      0.0%      0.0%
 flops   505 x   224 x   435         601115155200     100.0%      0.0%      0.0%
 flops   510 x   224 x   435         607066790400     100.0%      0.0%      0.0%
 flops   518 x   224 x   435         616589406720     100.0%      0.0%      0.0%
 flops   505 x   224 x   456         630134507520     100.0%      0.0%      0.0%
 flops   510 x   224 x   456         636373463040     100.0%      0.0%      0.0%
 flops   518 x   224 x   456         646355791872     100.0%      0.0%      0.0%
 flops   505 x   224 x   469         648098868480     100.0%      0.0%      0.0%
 flops   505 x   224 x    96         648704286720     100.0%      0.0%      0.0%
 flops    13 x    13 x    96         653150204928     100.0%      0.0%      0.0%
 flops   510 x   224 x   469         654515688960     100.0%      0.0%      0.0%
 flops   510 x   224 x    96         655127101440     100.0%      0.0%      0.0%
 flops   386 x   224 x    64         661121728512     100.0%      0.0%      0.0%
 flops   518 x   224 x   469         664782601728     100.0%      0.0%      0.0%
 flops   518 x   224 x    96         665403604992     100.0%      0.0%      0.0%
 flops   399 x   224 x    64         683387486208     100.0%      0.0%      0.0%
 flops   402 x   224 x    64         688525737984     100.0%      0.0%      0.0%
 flops    64 x   224 x    64         735588646912     100.0%      0.0%      0.0%
 flops   505 x   224 x    64         864939048960     100.0%      0.0%      0.0%
 flops    13 x    13 x    64         870866939904     100.0%      0.0%      0.0%
 flops   510 x   224 x    64         873502801920     100.0%      0.0%      0.0%
 flops   518 x   224 x    64         887204806656     100.0%      0.0%      0.0%
 flops     5 x    32 x     5         895508096000     100.0%      0.0%      0.0%
 flops    96 x   224 x   435         896211025920     100.0%      0.0%      0.0%
 flops    47 x    32 x    13         903676859904     100.0%      0.0%      0.0%
 flops    13 x    32 x    47         903676859904     100.0%      0.0%      0.0%
 flops    96 x   224 x   456         939476385792     100.0%      0.0%      0.0%
 flops    96 x   224 x   469         966259703808     100.0%      0.0%      0.0%
 flops    64 x   224 x   435        1194948034560     100.0%      0.0%      0.0%
 flops    64 x   224 x   456        1252635181056     100.0%      0.0%      0.0%
 flops    64 x   224 x   469        1288346271744     100.0%      0.0%      0.0%
 flops     5 x    32 x    13        2365876764160     100.0%      0.0%      0.0%
 flops    13 x    32 x     5        2365876764160     100.0%      0.0%      0.0%
 flops    13 x    32 x    13        6080256279552     100.0%      0.0%      0.0%
 flops inhomo. stacks                  2420490240     100.0%      0.0%      0.0%
 flops total                        44.949727E+12     100.0%      0.0%      0.0%
 flops max/rank                      7.728486E+12     100.0%      0.0%      0.0%
 matmuls inhomo. stacks                      2520     100.0%      0.0%      0.0%
 matmuls total                         2604490092     100.0%      0.0%      0.0%
 number of processed stacks               6343018     100.0%      0.0%      0.0%
 average stack size                                   410.6       0.0       0.0
 marketing flops                    58.783980E+12
 -------------------------------------------------------------------------------
 # multiplications                          32374
 max memory usage/rank             730.550272E+06
 # max total images/rank                        3
 # max 3D layers                                1
 # MPI messages exchanged                 1359708
 MPI messages size (bytes):
  total size                       689.430856E+09
  min size                           0.000000E+00
  max size                           3.421824E+06
  average size                     507.043312E+03
 MPI breakdown and total messages size (bytes):
             size <=      128                1296                        0
       128 < size <=     8192                   0                        0
      8192 < size <=    32768                 288                  5505024
     32768 < size <=   131072              545774              56846942208
    131072 < size <=  4194304              812350             632613627456
   4194304 < size <= 16777216                   0                        0
  16777216 < size                               0                        0
 -------------------------------------------------------------------------------

 *** WARNING in dbcsr_mm.F:294 :: Using a non-square number of MPI ranks ***
 *** might lead to poor performance. Used ranks: 6 Suggested: 4 9        ***

 -------------------------------------------------------------------------------
 -                                                                             -
 -                      DBCSR MESSAGE PASSING PERFORMANCE                      -
 -                                                                             -
 -------------------------------------------------------------------------------
 ROUTINE             CALLS      AVE VOLUME [Bytes]
 MP_Bcast               74                     12.
 MP_Allreduce       174782                     11.
 MP_Alltoall        103806                 106206.
 MP_ISend           713650                 207005.
 MP_IRecv           701698                 200965.
 -------------------------------------------------------------------------------

 -------------------------------------------------------------------------------
 -                                                                             -
 -                                GRID STATISTICS                              -
 -                                                                             -
 -------------------------------------------------------------------------------
 LP    KERNEL             BACKEND                              COUNT     PERCENT
 3     collocate ortho    REF                              233770718      24.28%
 3     integrate ortho    REF                              230398428      23.93%
 2     collocate ortho    REF                              122735764      12.75%
 4     collocate ortho    REF                              122502228      12.72%
 2     integrate ortho    REF                              120964851      12.56%
 4     integrate ortho    REF                              120734944      12.54%
 5     integrate ortho    REF                                4107229       0.43%
 6     integrate ortho    REF                                3315206       0.34%
 5     collocate ortho    REF                                2452200       0.25%
 7     integrate ortho    REF                                1686952       0.18%
 6     collocate ortho    REF                                  97600       0.01%
 0     collocate general  REF                                  36960       0.00%
 3     integrate general  REF                                  35280       0.00%
 8     integrate ortho    REF                                  33768       0.00%
 9     integrate ortho    REF                                   1344       0.00%
 -------------------------------------------------------------------------------

 MEMORY| Estimated peak process memory [MiB]                                 697

 -------------------------------------------------------------------------------
 -                                                                             -
 -                         MESSAGE PASSING PERFORMANCE                         -
 -                                                                             -
 -------------------------------------------------------------------------------

 ROUTINE             CALLS      AVE VOLUME [Bytes]
 MP_Group                4
 MP_Bcast            38132                  35830.
 MP_Allreduce       101319                   1540.
 MP_Sync              1040
 MP_Alltoall         29313               30165739.
 MP_SendRecv           420                  23902.
 MP_ISendRecv        30490                 152640.
 MP_Wait             91900
 MP_ISend            49128                 867110.
 MP_IRecv            49128                 867103.
 MP_Recv              1364                 541068.
 -------------------------------------------------------------------------------


 -------------------------------------------------------------------------------
 -                                                                             -
 -                           R E F E R E N C E S                               -
 -                                                                             -
 -------------------------------------------------------------------------------
 
 CP2K version 9.1, the CP2K developers group (2021).
 CP2K is freely available from https://www.cp2k.org/ .

 Kuehne,Thomas D.; Iannuzzi,Marcella; Del Ben,Mauro;
 Rybkin,Vladimir V.; Seewald,Patrick; Stein,Frederick; Laino,Teodoro;
 Khaliullin,Rustam Z.; Schuett,Ole; Schiffmann,Florian; Golze,Dorothea;
 Wilhelm,Jan; Chulkov,Sergey; Bani-Hashemian,Mohammad Hossein;
 Weber,Valery; Borstnik,Urban; Taillefumier,Mathieu;
 Jakobovits,Alice Shoshana; Lazzaro,Alfio; Pabst,Hans; Mueller,Tiziano;
 Schade,Robert; Guidon,Manuel; Andermatt,Samuel; Holmberg,Nico;
 Schenter,Gregory K.; Hehn,Anna; Bussy,Augustin; Belleflamme,Fabian;
 Tabacchi,Gloria; Gloess,Andreas; Lass,Michael; Bethune,Iain;
 Mundy,Christopher J.; Plessl,Christian; Watkins,Matt;
 VandeVondele,Joost; Krack,Matthias; Hutter,Juerg. 
 The Journal of Chemical Physics, 152 (19), (2020). 
 CP2K: An electronic structure and molecular dynamics software package -
 Quickstep: Efficient and accurate electronic structure calculations.
 https://doi.org/10.1063/5.0007045

 Goerigk, Lars; Hansen, Andreas; Bauer, Christoph; Ehrlich, Stephan;
 Najibi, Asim; Grimme, Stefan. , 19 (48), (2017). 
 A look at the density functional theory zoo with the advanced GMTKN55 database
 for general main group thermochemistry, kinetics and noncovalent interactions.
 https://doi.org/10.1039/C7CP04913G

 Schuett, Ole; Messmer, Peter; Hutter, Juerg; VandeVondele, Joost. 
 Electronic Structure Calculations on Graphics Processing Units, John
 Wiley & Sons, Ltd, 173-190 (2016). 
 GPU-Accelerated Sparse Matrix-Matrix Multiplication for
 Linear Scaling Density Functional Theory.
 https://doi.org/10.1002/9781118670712.ch8

 Borstnik, U; VandeVondele, J; Weber, V; Hutter, J. 
 PARALLEL COMPUTING, 40 (5-6), 47-58 (2014). 
 Sparse matrix multiplication: The distributed block-compressed sparse
 row library.
 https://doi.org/10.1016/j.parco.2014.03.012

 Hutter, J; Iannuzzi, M; Schiffmann, F; VandeVondele, J. 
 WIREs Comput Mol Sci., 4 (1), 15-25 (2014). 
 CP2K: atomistic simulations of condensed matter systems.
 https://doi.org/10.1002/wcms.1159

 Marek, A; Blum, V; Johanni, R; Havu, V; Lang, B; Auckenthaler, T;
 Heinecke, A; Bungartz, H; Lederer, H. 
 Journal of Physics: Condensed Matter, 26 (21), (2014). 
 The ELPA library: scalable parallel eigenvalue solutions for
 electronic structure
 theory and computational science.
 https://doi.org/10.1088/0953-8984/26/21/213201

 Grimme, S; Ehrlich, S; Goerigk, L. 
 JOURNAL OF COMPUTATIONAL CHEMISTRY, 32, 1456 (2011). 
 Effect of the damping function in dispersion corrected density functional theory.
 https://doi.org/10.1002/jcc.21759

 Grimme, S; Antony, J; Ehrlich, S; Krieg, H. 
 JOURNAL OF CHEMICAL PHYSICS, 132 (15), 154104 (2010). 
 A consistent and accurate ab initio parametrization of density
 functional dispersion correction (DFT-D) for the 94 elements H-Pu.
 https://doi.org/10.1063/1.3382344

 VandeVondele, J; Hutter, J. 
 JOURNAL OF CHEMICAL PHYSICS, 127 (11), 114105 (2007). 
 Gaussian basis sets for accurate calculations on molecular systems in
 gas and condensed phases.
 https://doi.org/10.1063/1.2770708

 Kuhne, TD; Krack, M; Mohamed, FR; Parrinello, M. 
 PHYSICAL REVIEW LETTERS, 98 (6), 066401 (2007). 
 Efficient and accurate Car-Parrinello-like approach to
 Born-Oppenheimer molecular dynamics.
 https://doi.org/10.1103/PhysRevLett.98.066401

 Krack, M. 
 THEORETICAL CHEMISTRY ACCOUNTS, 114 (1-3), 145-152 (2005). 
 Pseudopotentials for H to Kr optimized for gradient-corrected
 exchange-correlation functionals.
 https://doi.org/10.1007/s00214-005-0655-y

 VandeVondele, J; Krack, M; Mohamed, F; Parrinello, M; Chassaing, T;
 Hutter, J. COMPUTER PHYSICS COMMUNICATIONS, 167 (2), 103-128 (2005). 
 QUICKSTEP: Fast and accurate density functional calculations using a
 mixed Gaussian and plane waves approach.
 https://doi.org/10.1016/j.cpc.2004.12.014

 Frigo, M; Johnson, SG. 
 PROCEEDINGS OF THE IEEE, 93 (2), 216-231 (2005). 
 The design and implementation of FFTW3.
 https://doi.org/10.1109/JPROC.2004.840301

 Kolafa, J. 
 JOURNAL OF COMPUTATIONAL CHEMISTRY, 25 (3), 335-342 (2004). 
 Time-reversible always stable predictor-corrector method for
 molecular dynamics of polarizable molecules.
 https://doi.org/10.1002/jcc.10385

 VandeVondele, J; Hutter, J. 
 JOURNAL OF CHEMICAL PHYSICS, 118 (10), 4365-4369 (2003). 
 An efficient orbital transformation method for electronic structure
 calculations.
 https://doi.org/10.1063/1.1543154

 Hartwigsen, C; Goedecker, S; Hutter, J. 
 PHYSICAL REVIEW B, 58 (7), 3641-3662 (1998). 
 Relativistic separable dual-space Gaussian pseudopotentials from H to Rn.
 https://doi.org/10.1103/PhysRevB.58.3641

 Lippert, G; Hutter, J; Parrinello, M. 
 MOLECULAR PHYSICS, 92 (3), 477-487 (1997). 
 A hybrid Gaussian and plane wave density functional scheme.
 https://doi.org/10.1080/002689797170220

 Perdew, JP; Burke, K; Ernzerhof, M. 
 PHYSICAL REVIEW LETTERS, 77 (18), 3865-3868 (1996). 
 Generalized gradient approximation made simple.
 https://doi.org/10.1103/PhysRevLett.77.3865

 Goedecker, S; Teter, M; Hutter, J. 
 PHYSICAL REVIEW B, 54 (3), 1703-1710 (1996). 
 Separable dual-space Gaussian pseudopotentials.
 https://doi.org/10.1103/PhysRevB.54.1703


 -------------------------------------------------------------------------------
 -                                                                             -
 -                                T I M I N G                                  -
 -                                                                             -
 -------------------------------------------------------------------------------
 SUBROUTINE                       CALLS  ASD         SELF TIME        TOTAL TIME
                                MAXIMUM       AVERAGE  MAXIMUM  AVERAGE  MAXIMUM
 CP2K                                 1  1.0    0.018    0.019 4901.936 4901.937
 cp_geo_opt                           1  2.0    0.002    0.002 4901.551 4901.555
 geoopt_bfgs                          1  3.0    0.057    0.124 4901.549 4901.554
 cp_eval_at                          22  4.0    0.002    0.002 4895.079 4895.084
 qs_forces                           21  5.0    0.003    0.003 4838.179 4838.179
 qs_energies                         22  6.0    0.002    0.003 4807.195 4807.370
 scf_env_do_scf                      22  7.0    0.002    0.003 4740.560 4740.567
 scf_env_do_scf_inner_loop         1503  8.0    0.142    0.708 4658.270 4658.603
 rebuild_ks_matrix                 1524  9.9    0.006    0.006 2176.913 2179.687
 qs_ks_build_kohn_sham_matrix      1524 10.9    0.181    0.187 2176.908 2179.681
 qs_ks_update_qs_env               1527  9.0    0.011    0.013 2114.807 2117.692
 dbcsr_multiply_generic           32374 14.1    1.349    1.374 1542.143 1555.674
 multiply_cannon                  32374 15.1    2.121    2.215 1360.305 1386.612
 qs_scf_new_mos                    1503  9.0    0.007    0.007 1376.464 1381.963
 qs_scf_loop_do_ot                 1503 10.0    0.007    0.007 1376.456 1381.956
 multiply_cannon_loop             32374 16.1    1.609    1.657 1340.724 1368.371
 multiply_cannon_multrec         194244 17.1 1331.859 1362.766 1332.126 1363.029
 ot_scf_mini                       1503 11.0    0.028    0.029 1252.796 1255.444
 sum_up_and_integrate              1524 11.9    2.921    3.205 1209.031 1209.234
 integrate_v_rspace                1524 12.9    0.050    0.053 1206.106 1206.434
 qs_rho_update_rho                 1525  9.0    0.007    0.008 1203.311 1205.543
 calculate_rho_elec                1525 10.0    2.313    2.446 1203.304 1205.536
 grid_integrate_task_list          1524 13.9 1079.965 1088.559 1079.965 1088.559
 grid_collocate_task_list          1525 11.0 1016.610 1023.798 1016.610 1023.798
 ot_mini                           1503 12.0    0.010    0.010  752.738  755.971
 pw_transfer                      28983 13.6    1.972    1.995  659.092  664.119
 fft_wrap_pw1pw2                  25935 14.7    0.256    0.261  650.431  655.416
 fft_wrap_pw1pw2_150              16788 15.8   46.071   47.928  630.299  635.281
 qs_vxc_create                     1524 11.9    0.029    0.030  631.634  632.543
 xc_vxc_pw_create                  1524 12.9   44.758   49.677  631.605  632.513
 fft3d_ps                         25935 16.7  270.127  274.446  459.363  464.482
 qs_ot_get_derivative              1503 13.0    0.011    0.011  435.712  438.372
 xc_rho_set_and_dset_create        1524 13.9    3.343    3.460  315.223  319.936
 ot_diis_step                      1503 13.0    0.060    0.061  313.000  313.007
 apply_preconditioner_dbcsr        1527 14.0    0.004    0.004  290.990  293.708
 apply_single                      1527 15.0    0.004    0.005  290.987  293.705
 qs_ot_get_derivative_diag          994 14.0    0.022    0.023  205.933  207.592
 density_rs2pw                     1525 11.0    0.080    0.081  172.297  184.238
 qs_ot_get_p                       1527 12.0    0.008    0.008  157.933  161.168
 calculate_dm_sparse               1525 11.0    0.005    0.006  125.512  132.447
 mp_alltoall_z22v                 25935 18.7  104.794  113.371  104.794  113.371
 xc_functional_eval                1524 14.9    0.015    0.016  107.838  112.877
 pbe_lda_eval                      1524 15.9  107.823  112.863  107.823  112.863
 x_to_yz                          13717 18.2   55.304   57.733  107.735  109.532
 mp_sum_l                        155669 15.1   86.850  108.216   86.850  108.216
 qs_ot_get_orbitals                1503 12.0    0.006    0.007  105.707  107.748
 qs_ot_get_derivative_taylor        509 14.0    0.014    0.015   97.127   98.048
 -------------------------------------------------------------------------------

 The number of warnings for this run is : 1
 
 -------------------------------------------------------------------------------
  **** **** ******  **  PROGRAM ENDED AT                 2026-06-03 23:27:30.473
 ***** ** ***  *** **   PROGRAM RAN ON                           WIN-J3K434GUOOG
 **    ****   ******    PROGRAM RAN BY                                       cpl
 ***** **    ** ** **   PROGRAM PROCESS ID                                   412
  **** **  *******  **  PROGRAM STOPPED IN /mnt/d/CPL_CAL/cp2k_a3eucl6_workflow/
                                           runs/QUVXEO_2401649_R_H_only_preopt
