     280
 i =        1, E =     -1636.6273179919
 Eu         3.2464689520        6.3516272580        7.1879322360
 Eu         0.5808310480        8.2689727420       22.9800322360
 Eu         4.4081310480       13.6619272580        8.6041677640
 Eu         7.0737689520        0.9586727420       24.3962677640
  H         0.4631923932        6.5387415557        5.0711162520
  H         3.3641673828        8.0818053554       20.8629549381
  H         7.1915003401       13.8490570414       10.7215742573
  H         4.2904688671        0.7714997833       26.5132964329
  H         7.0014161906        5.5866074384        5.8006539716
  H         4.4806178637        9.0341215430       21.5925395101
  H         0.6533838641       12.8967736910        9.9916782322
  H         3.1737821236        1.7238055860       25.7838064127
  H         6.7422161666        7.1789894820        5.7339889559
  H         4.7395756092        7.4416731195       21.5262083791
  H         0.9123513925       14.4893626920       10.0582608734
  H         2.9148828765        0.1312206749       25.8503768563
  H         3.3053109014        1.0559359182        5.8107657428
  H         0.5218512559       13.5646913416       21.6032414245
  H         4.3491613151        8.3661726344        9.9807946810
  H         7.1326363123        6.2543984125       25.7732454637
  H         2.4862969108        2.0700767454        6.7759979376
  H         1.3408876502       12.5506998422       22.5681307779
  H         5.1683579490        9.3802741019        9.0161710946
  H         6.3136540860        5.2402915704       24.8081871517
  H         3.8088081708        2.6147387918        6.0186173008
  H         0.0185293861       12.0058136894       21.8105449420
  H         3.8458627129        9.9251331960        9.7733914467
  H         7.6360974262        4.6955766187       25.5657168651
  H         6.5300621456       14.5494736070        2.1587254081
  H         4.9522671657        0.0716593822       17.9505089235
  H         1.1246998286        7.2392376522       13.6331887134
  H         2.7024072643        7.3820146232       29.4258949251
  H         1.9107802718       11.8145499921        6.5724078642
  H         1.9165481720        2.8060330627       22.3644843727
  H         5.7437408871        4.5041478630        9.2197629131
  H         5.7381447239       10.1164364989       25.0116516152
  H         1.5454596224       10.2939507575        7.0813923129
  H         2.2821170349        4.3267495497       22.8734744398
  H         6.1090173219        2.9837471770        8.7105932032
  H         5.3730327498       11.6368271480       24.5027616366
  H         0.3696459484       11.3903167257        6.9188305719
  H         3.4575722636        3.2302129314       22.7111874137
  H         7.2848876314        4.0801665190        8.8731291461
  H         4.1969855823       10.5405348452       24.6653092998
  H         1.9686521989        3.4723076152        4.9150654364
  H         1.8585819932       11.1483302496       20.7074760173
  H         5.6858037547       10.7825945305       10.8767337950
  H         5.7960895028        3.8379675374       26.6690331532
  H         5.3903607284        6.1233620451        4.1547763521
  H         6.0914795877        8.4973269820       19.9470646179
  H         2.2642170215       13.4335211305       11.6372897331
  H         1.5630902564        1.1869183365       27.4292217490
  H         5.0000138599       10.3814024089        2.4443059994
  H         6.4820142427        4.2393390125       18.2363535824
  H         2.6549066273        3.0707693987       13.3480682558
  H         1.1722996419       11.5499212253       29.1405258901
  H         4.7310270484        8.3051665548        3.7042109152
  H         6.7508025669        6.3152836355       19.4964976641
  H         2.9236553149        0.9949575919       12.0880052963
  H         0.9035782295       13.6256793392       27.8802117302
  H         2.9361819337        4.3680981617        3.0495909609
  H         0.8911827629       10.2525312093       18.8417170185
  H         4.7188900340       11.6783034224       12.7426245943
  H         6.7631070010        2.9421995757       28.5349608593
  H         7.0335398506       10.7758190810        1.1670978893
  H         4.4483992709        3.8448632800       16.9590656054
  H         0.6212471096        3.4654371067       14.6252082163
  H         3.2058753583       11.1552920974       30.4175754719
  H         0.8617035647        7.0040710505        2.3399914144
  H         2.9655537867        7.6165264874       18.1324930317
  H         6.7929345192       14.3143113356       13.4520110192
  H         4.6889822650        0.3062804304       29.2439029221
  H         5.4608402283       13.8172508235        4.2298008564
  H         6.0211142290        0.8034970570       20.0221088805
  H         2.1937070357        6.5069255021       11.5623668120
  H         1.6334332600        8.1138010624       27.3543932583
  H         3.1611898788        0.1747931335        3.5494717135
  H         0.6654975588       14.4457043995       19.3419245625
  H         4.4936918811        7.4851877356       12.2426150559
  H         6.9885338233        7.1354220590       28.0346064725
  H         2.0007563272       11.8047605508        2.8126085217
  H         1.8265899310        2.8158920496       18.6046811806
  H         5.6538257371        4.4945320980       12.9795225473
  H         5.8280487245       10.1261781365       28.7716478178
  H         4.7615722768        1.9776872193        0.0933050587
  H         6.7206752212       12.6429755347       15.8852224932
  H         2.8931202113        9.2878958618       15.6988413716
  H         0.9340687211        5.3326762065       31.4910209618
  H         6.4309025545       12.0363627202        5.5421974932
  H         5.0511007473        2.5841682210       21.3342616379
  H         1.2236793382        4.7258750629       10.2499984082
  H         2.6034820007        9.8946455288       26.0421140896
  H         0.3372803040        4.9988264014        3.1539493837
  H         3.4900342945        9.6215770218       18.9461034284
  H         7.3172965441       12.3092448586       12.6380366589
  H         4.1645741078        2.3112681133       28.4301245413
  H         6.4877839962        4.8552199110        2.3023287897
  H         4.9941996617        9.7652008117       18.0944351286
  H         1.1667401013       12.1655896965       13.4898047443
  H         2.6605916502        2.4550390958       29.2819257986
  H         6.6698000946        4.1256570935        3.8687500586
  H         4.8120969676       10.4950201755       19.6607399565
  H         0.9847956932       11.4358679147       11.9234434013
  H         2.8424229219        3.1846338252       27.7154613469
  H         4.3199450617       -0.0008733034        1.4141901768
  H         7.1618732646       14.6214776328       17.2062771248
  H         3.3348538097        7.3094490873       14.3779782527
  H         0.4922438550        7.3112200138       30.1701682605
  H         0.3560821846        9.8443777387        5.1134300956
  H         3.4712271029        4.7762238565       20.9052531502
  H         7.2986190632        2.5341498295       10.6788618110
  H         4.1833042857       12.0864611964       26.4708220504
  H         1.0954680745        0.6022148933        4.7228479883
  H         2.7316070629       14.0183546113       20.5149379983
  H         6.5590504230        7.9125388993       11.0693083433
  H         4.9229773077        6.7080352436       26.8611972161
  H         0.2959110583        1.9196252642        3.9413209139
  H         3.5312940990       12.7010954221       19.7333552531
  H         7.3587880093        9.2298361902       11.8507220560
  H         4.1231061320        5.3908529495       27.6428269921
  H         0.3571610351        1.8442490028        5.6770579004
  H         3.4701623829       12.7761624718       21.4690946463
  H         7.2973751322        9.1547983226       10.1150692503
  H         4.1844349365        5.4658869595       25.9072084232
  H         3.1238471671       10.9073610285        4.6214374582
  H         0.7035219083        3.7131784433       20.4136050226
  H         4.5309347365        3.5972152511       11.1705638646
  H         6.9511129622       11.0235228696       26.9626684314
  H         2.3103659018        9.7111212425        3.6497130924
  H         1.5170103459        4.9094057268       19.4417867627
  H         5.3442906577        2.4008783090       12.1424044675
  H         6.1376933976       12.2197209126       27.9345105731
  H         2.7446835513        9.3477870478        5.2784994197
  H         1.0825494131        5.2728318192       21.0705489917
  H         4.9098026364        2.0374500610       10.5136326652
  H         6.5718753923       12.5832759354       26.3057782682
  C         6.9672169200       13.7959981600        2.7446669800
  C         4.5146830800        0.8246018400       18.5367669800
  C         0.6873830800        6.4856981600       13.0474330200
  C         3.1399169200        8.1349018400       28.8395330200
  C         0.4906598600       13.2170224000        2.3659724220
  C         3.3366401400        1.4035776000       18.1580724220
  C         7.1639401400        5.9067224000       13.4261275780
  C         4.3179598600        8.7138776000       29.2182275780
  C         2.1769682400        2.4372540200        4.7584755720
  C         1.6503317600       12.1833459800       20.5505755720
  C         5.4776317600        9.7475540200       11.0336244280
  C         6.0042682400        4.8730459800       26.8257244280
  C         6.4268021600        6.2342238400        3.9148615900
  C         5.0550978400        8.3863761600       19.7069615900
  C         1.2277978400       13.5445238400       11.8772384100
  C         2.5995021600        1.0760761600       27.6693384100
  C         0.4860671000       11.7871277200        4.2878709920
  C         3.3412329000        2.8334722800       20.0799709920
  C         7.1685329000        4.4768277200       11.5042290080
  C         4.3133671000       10.1437722800       27.2963290080
  C         5.7554937400        9.6510580600        2.4300883480
  C         5.7264062600        4.9695419400       18.2221883480
  C         1.8991062600        2.3407580600       13.3620116520
  C         1.9281937400       12.2798419400       29.1541116520
  C         5.6016362800        8.4740997600        3.1401011640
  C         5.8802637200        6.1465002400       18.9322011640
  C         2.0529637200        1.1637997600       12.6519988360
  C         1.7743362800       13.4568002400       28.4440988360
  C         3.2187593000        3.4182962800        2.7007649420
  C         0.6085407000       11.2023037200       18.4928649420
  C         4.4358407000       10.7285962800       13.0913350580
  C         7.0460593000        3.8920037200       28.8834350580
  C         6.9075110400        9.8791394200        1.6976507500
  C         4.5743889600        4.7414605800       17.4897507500
  C         0.7470889600        2.5688394200       14.0944492500
  C         3.0802110400       12.0517605800       29.8865492500
  C         2.9585029000        2.2851997800        3.4537322700
  C         0.8687971000       12.3354002200       19.2458322700
  C         4.6960971000        9.5954997800       12.3383677300
  C         6.7858029000        5.0251002200       28.1304677300
  C         0.0987443400        7.7240629800        2.3669199480
  C         3.7285556600        6.8965370200       18.1590199480
  C         7.5558556600        0.4137629800       13.4251800520
  C         3.9260443400       14.2068370200       29.2172800520
  C         6.3602071400       13.3763869400        3.9126506960
  C         5.1216928600        1.2442130600       19.7047506960
  C         1.2943928600        6.0660869400       11.8794493040
  C         2.5329071400        8.5545130600       27.6715493040
  C         3.3565421000        1.0424487800        2.9891286880
  C         0.4707579000       13.5781512200       18.7812286880
  C         4.2980579000        8.3527487800       12.8029713120
  C         7.1838421000        6.2678512200       28.5950713120
  C         6.5959688200        7.5076781000        3.1069377540
  C         4.8859311800        7.1129219000       18.8990377540
  C         1.0586311800        0.1973781000       12.6851622460
  C         2.7686688200       14.4232219000       28.4772622460
  C         0.2342307600        8.9024833400        1.6692249700
  C         3.5930692400        5.7181166600       17.4613249700
  C         7.4203692400        1.5921833400       14.1228750300
  C         4.0615307600       13.0284166600       29.9149750300
  C         3.8648075400        3.2808626400        1.4705603520
  C         7.6170924600       11.3397373600       17.2626603520
  C         3.7897924600       10.5911626400       14.3215396480
  C         0.0375075400        4.0294373600       30.1136396480
  C         1.0915459600       12.2213595400        3.1299942200
  C         2.7357540400        2.3992404600       18.9220942200
  C         6.5630540400        4.9110595400       12.6621057800
  C         4.9188459600        9.7095404600       28.4542057800
  C         4.2643776600        2.0615046000        1.0148003460
  C         7.2175223400       12.5590954000       16.8069003460
  C         3.3902223400        9.3718046000       14.7772996540
  C         0.4370776600        5.2487954000       30.5693996540
  C         6.9281784600       12.3617173000        4.6744616000
  C         4.5537215400        2.2588827000       20.4665616000
  C         0.7264215400        5.0514173000       11.1176384000
  C         3.1008784600        9.5691827000       26.9097384000
  C         6.9350676000        4.9563834000        3.2610686500
  C         4.5468324000        9.6642166000       19.0531686500
  C         0.7195324000       12.2666834000       12.5310313500
  C         3.1077676000        2.3539166000       28.3231313500
  C         4.0156031600        0.9401045800        1.7671359900
  C         7.4662968400       13.6804954200       17.5592359900
  C         3.6389968400        8.2504045800       14.0249640100
  C         0.1883031600        6.3701954200       29.8170640100
  C         1.0662857800       10.6423347400        5.0983215640
  C         2.7610142200        3.9782652600       20.8904215640
  C         6.5883142200        3.3320347400       10.6937784360
  C         4.8935857800       11.2885652600       26.4858784360
  C         0.8886990600        1.6433554400        4.7780577760
  C         2.9386009400       12.9772445600       20.5701577760
  C         6.7659009400        8.9536554400       11.0140422240
  C         4.7159990600        5.6669445600       26.8061422240
  C         2.4127299200       10.1174552000        4.6261377740
  C         1.4145700800        4.5031448000       20.4182377740
  C         5.2418700800        2.8071552000       11.1659622260
  C         6.2400299200       11.8134448000       26.9580622260
 Br         1.2639275520       13.6812264500        0.7055910280
 Br         2.5633724480        0.9393735500       16.4976910280
 Br         6.3906724480        6.3709264500       15.0865089720
 Br         5.0912275520        8.2496735500       30.8786089720
 Br         1.8240146340        9.1774968260        0.6740068280
 Br         2.0032853660        5.4431031740       16.4661068280
 Br         5.8305853660        1.8671968260       15.1180931720
 Br         5.6513146340       12.7534031740       30.9101931720
 Br         4.1833154460        4.8416116900        0.4330193820
 Br         7.2985845540        9.7789883100       16.2251193820
 Br         3.4712845540       12.1519116900       15.3590806180
 Br         0.3560154460        2.4686883100       31.1511806180
  N         7.1348526600        6.4023607400        5.2335019400
  N         4.3470473400        8.2182392600       21.0256019400
  N         0.5197473400       13.7126607400       10.5585980600
  N         3.3075526600        0.9079392600       26.3506980600
  N         3.0136160200        2.0088704400        5.9251959200
  N         0.8136839800       12.6117295600       21.7172959200
  N         4.6409839800        9.3191704400        9.8669040800
  N         6.8409160200        5.3014295600       25.6590040800
  N         1.2369833600       11.0721803800        6.5275066140
  N         2.5903166400        3.5484196200       22.3196066140
  N         6.4176166400        3.7618803800        9.2645933860
  N         5.0642833600       10.8587196200       25.0566933860
 Cl         2.6063913000        6.5098221500        4.5970803100
 Cl         1.2209087000        8.1107778500       20.3891803100
 Cl         5.0482087000       13.8201221500       11.1950196900
 Cl         6.4336913000        0.8004778500       26.9871196900
 Cl         5.0100887920        4.4067950460        6.4975016240
 Cl         6.4718112080       10.2138049540       22.2896016240
 Cl         2.6445112080       11.7170950460        9.2945983760
 Cl         1.1827887920        2.9035049540       25.0866983760
 Cl         1.3309818480        4.4696636260        7.4226028420
 Cl         2.4963181520       10.1509363740       23.2147028420
 Cl         6.3236181520       11.7799636260        8.3694971580
 Cl         5.1582818480        2.8406363740       24.1615971580
 Cl         4.1651740440        6.0890412820        9.7074038700
 Cl         7.3167259560        8.5315587180       25.4995038700
 Cl         3.4894259560       13.3993412820        6.0846961300
 Cl         0.3378740440        1.2212587180       21.8767961300
 Cl         5.0887780800        8.2618086480        6.8057634160
 Cl         6.3931219200        6.3587913520       22.5978634160
 Cl         2.5658219200        0.9515086480        8.9863365840
 Cl         1.2614780800       13.6690913520       24.7784365840
 Cl         1.4781032600        8.1775939920        7.8925757380
 Cl         2.3491967400        6.4430060080       23.6846757380
 Cl         6.1764967400        0.8672939920        7.8995242620
 Cl         5.3054032600       13.7533060080       23.6916242620
     280
 i =        2, E =     -1636.7400850979
 Eu         3.2464689520        6.3516272580        7.1879322360
 Eu         0.5808310480        8.2689727420       22.9800322360
 Eu         4.4081310480       13.6619272580        8.6041677640
 Eu         7.0737689520        0.9586727420       24.3962677640
  H         0.4949095689        6.5380295019        5.0889689082
  H         3.3324935921        8.0827459011       20.8807486625
  H         7.1598234849       13.8482519549       10.7036890872
  H         4.3221450833        0.7722797879       26.4954060744
  H         7.0005101379        5.5736277052        5.8224207740
  H         4.4813184752        9.0471118666       21.6143514125
  H         0.6544095819       12.8836974011        9.9700604607
  H         3.1729231057        1.7367386703       25.7619430074
  H         6.7326088695        7.1883192083        5.7641547067
  H         4.7492369949        7.4322644343       21.5562736745
  H         0.9219529780       14.4988287185       10.0282578234
  H         2.9052390190        0.1218101432       25.8202860415
  H         3.3150588909        1.0289229188        5.8400906560
  H         0.5120799725       13.5916589090       21.6324072162
  H         4.3394676859        8.3391471655        9.9517532101
  H         7.1422977270        6.2814398009       25.7439594038
  H         2.4891032852        2.0672718752        6.8059962903
  H         1.3380444344       12.5534494580       22.5981667182
  H         5.1656862615        9.3777542568        8.9862581757
  H         6.3163182916        5.2428965442       24.7782538298
  H         3.8310940729        2.6251378922        6.0420922748
  H        -0.0037340184       11.9953617196       21.8340403647
  H         3.8237031355        9.9357015028        9.7495615133
  H         7.6583902307        4.6851857134       25.5418615363
  H         6.5205860784       14.5677976155        2.1432067857
  H         4.9616249935        0.0532495067       17.9349558986
  H         1.1341186781        7.2574509145       13.6488525405
  H         2.6928246522        7.3637156759       29.4413251869
  H         1.9288207316       11.8307381222        6.5871390849
  H         1.8983678308        2.7899532459       22.3791506241
  H         5.7255261238        4.5202348243        9.2048389095
  H         5.7561311986       10.1002168237       24.9969811289
  H         1.5515101714       10.2769406562        7.1008956483
  H         2.2760813410        4.3437534881       22.8929524997
  H         6.1029233918        2.9666303127        8.6912505455
  H         5.3789502329       11.6538430538       24.4831797888
  H         0.3622708112       11.4014450749        6.9602266217
  H         3.4649224698        3.2190606273       22.7526432752
  H         7.2922451760        4.0915057497        8.8320441485
  H         4.1896325076       10.5294991877       24.6237865556
  H         1.9787472696        3.4946049495        4.9286441500
  H         1.8485799283       11.1260320882       20.7208552358
  H         5.6758152054       10.8048772261       10.8633225226
  H         5.8061284328        3.8156930360       26.6554514392
  H         5.3698069648        6.1290176554        4.1730766179
  H         6.1120239340        8.4916195406       19.9653816503
  H         2.2847558797       13.4392865351       11.6188966638
  H         1.5425573846        1.1812265299       27.4109457915
  H         4.9837385936       10.4021276649        2.4433251200
  H         6.4982451503        4.2185608004       18.2353609182
  H         2.6711005976        3.0915846586       13.3490776787
  H         1.1560838690       11.5291307772       29.1414604507
  H         4.7093640754        8.2947519475        3.7167752395
  H         6.7724317650        6.3256854970       19.5091024099
  H         2.9452323887        0.9845334699       12.0753096096
  H         0.8819915172       13.6361487795       27.8675500899
  H         2.9315114059        4.3921453465        3.0596206674
  H         0.8959422467       10.2284564819       18.8516340342
  H         4.7235282039       11.7024286760       12.7327615047
  H         6.7584296718        2.9181454200       28.5249406187
  H         7.0357216028       10.7941433469        1.1482252379
  H         4.4462246844        3.8265201815       16.9402107537
  H         0.6190149910        3.4837474392       14.6440758633
  H         3.2081502781       11.1369794289       30.4364215614
  H         0.8839894597        6.9901596586        2.3391014524
  H         2.9431681862        7.6303308362       18.1317499512
  H         6.7705688496       14.3004767174       13.4526883862
  H         4.7113944897        0.3200496455       29.2446983819
  H         5.4358193366       13.8225604448        4.2379145036
  H         6.0459334461        0.7980593063       20.0302179455
  H         2.2182903669        6.5124924788       11.5538317374
  H         1.6085504535        8.1083608125       27.3463408433
  H         3.1537138373        0.1507413768        3.5595563926
  H         0.6731481767       14.4697870937       19.3518739384
  H         4.5012720301        7.4612037295       12.2325315451
  H         6.9809701712        7.1594836280       28.0245676486
  H         2.0187415345       11.7925517853        2.7958436884
  H         1.8085957621        2.8281008569       18.5879144926
  H         5.6358467497        4.4822862213       12.9962624275
  H         5.8460182806       10.1383926473       28.7883829091
  H         4.7752134385        1.9759685735        0.0708872405
  H         6.7069663579       12.6446816244       15.8628397762
  H         2.8794851765        9.2862264156       15.7212619989
  H         0.9477118948        5.3343555542       31.5134234032
  H         6.4125266617       12.0325447440        5.5625444766
  H         5.0693980690        2.5880767244       21.3546180921
  H         1.2420959783        4.7220455691       10.2296566430
  H         2.5851471093        9.8985111094       26.0217565261
  H         0.3619230937        4.9825158713        3.1448562809
  H         3.4653713797        9.6378740329       18.9370314142
  H         7.2926528024       12.2930022751       12.6471089530
  H         4.1892288818        2.3276487039       28.4392305995
  H         6.4785745197        4.8426780344        2.2806409073
  H         5.0033425787        9.7777715209       18.0727306948
  H         1.1759165025       12.1530807895       13.5115175097
  H         2.6514234901        2.4675701685       29.3036320775
  H         6.6667436190        4.1005675250        3.8761701678
  H         4.8151527313       10.5200871550       19.6681918957
  H         0.9879226619       11.4108798857       11.9159307787
  H         2.8393820042        3.2096955519       27.7080067441
  H         4.3217470593       -0.0242770476        1.4004236302
  H         7.1600854236       14.6448325353       17.1924934601
  H         3.3329864628        7.2861948963       14.3919695509
  H         0.4941335632        7.3345200169       30.1840169526
  H         0.3347107615        9.8332083204        5.1262921564
  H         3.4926539699        4.7873441476       20.9183511913
  H         7.3199790048        2.5229688631       10.6658958115
  H         4.1619388482       12.0976457947       26.4579202819
  H         1.0823085127        0.5744195651        4.7184655078
  H         2.7449394876       14.0461678256       20.5105811450
  H         6.5723231716        7.8847262554       11.0736417662
  H         4.9097270066        6.7358651758       26.8655359204
  H         0.2766540008        1.9203483877        3.9238206382
  H         3.5505868038       12.7004196797       19.7158239784
  H         7.3780149038        9.2305963048       11.8682380997
  H         4.1038832662        5.3901626761       27.6603708887
  H         0.3305474986        1.8389329263        5.6923852958
  H         3.4967790714       12.7814470080       21.4844160197
  H         7.3240001727        9.1494545151       10.0997397271
  H         4.1578833297        5.4711505590       25.8918467082
  H         3.1510180494       10.9160631063        4.6190638756
  H         0.6763420663        3.7044819988       20.4112839473
  H         4.5036913876        3.6058691380       11.1729207614
  H         6.9783250550       11.0148501478       26.9649803332
  H         2.3189923689        9.6952467480        3.6289021075
  H         1.5083462043        4.9252802465       19.4209739313
  H         5.3356434950        2.3850753142       12.1632487127
  H         6.1462870314       12.2355498311       27.9553444366
  H         2.7609314176        9.3281805580        5.2863568854
  H         1.0663217892        5.2924944128       21.0783558342
  H         4.8936264770        2.0178996855       10.5057197212
  H         6.5881347612       12.6028356831       26.2978671804
  C         6.9672169200       13.7959981600        2.7446669800
  C         4.5146830800        0.8246018400       18.5367669800
  C         0.6873830800        6.4856981600       13.0474330200
  C         3.1399169200        8.1349018400       28.8395330200
  C         0.4906598600       13.2170224000        2.3659724220
  C         3.3366401400        1.4035776000       18.1580724220
  C         7.1639401400        5.9067224000       13.4261275780
  C         4.3179598600        8.7138776000       29.2182275780
  C         2.1769682400        2.4372540200        4.7584755720
  C         1.6503317600       12.1833459800       20.5505755720
  C         5.4776317600        9.7475540200       11.0336244280
  C         6.0042682400        4.8730459800       26.8257244280
  C         6.4268021600        6.2342238400        3.9148615900
  C         5.0550978400        8.3863761600       19.7069615900
  C         1.2277978400       13.5445238400       11.8772384100
  C         2.5995021600        1.0760761600       27.6693384100
  C         0.4860671000       11.7871277200        4.2878709920
  C         3.3412329000        2.8334722800       20.0799709920
  C         7.1685329000        4.4768277200       11.5042290080
  C         4.3133671000       10.1437722800       27.2963290080
  C         5.7554937400        9.6510580600        2.4300883480
  C         5.7264062600        4.9695419400       18.2221883480
  C         1.8991062600        2.3407580600       13.3620116520
  C         1.9281937400       12.2798419400       29.1541116520
  C         5.6016362800        8.4740997600        3.1401011640
  C         5.8802637200        6.1465002400       18.9322011640
  C         2.0529637200        1.1637997600       12.6519988360
  C         1.7743362800       13.4568002400       28.4440988360
  C         3.2187593000        3.4182962800        2.7007649420
  C         0.6085407000       11.2023037200       18.4928649420
  C         4.4358407000       10.7285962800       13.0913350580
  C         7.0460593000        3.8920037200       28.8834350580
  C         6.9075110400        9.8791394200        1.6976507500
  C         4.5743889600        4.7414605800       17.4897507500
  C         0.7470889600        2.5688394200       14.0944492500
  C         3.0802110400       12.0517605800       29.8865492500
  C         2.9585029000        2.2851997800        3.4537322700
  C         0.8687971000       12.3354002200       19.2458322700
  C         4.6960971000        9.5954997800       12.3383677300
  C         6.7858029000        5.0251002200       28.1304677300
  C         0.0987443400        7.7240629800        2.3669199480
  C         3.7285556600        6.8965370200       18.1590199480
  C         7.5558556600        0.4137629800       13.4251800520
  C         3.9260443400       14.2068370200       29.2172800520
  C         6.3602071400       13.3763869400        3.9126506960
  C         5.1216928600        1.2442130600       19.7047506960
  C         1.2943928600        6.0660869400       11.8794493040
  C         2.5329071400        8.5545130600       27.6715493040
  C         3.3565421000        1.0424487800        2.9891286880
  C         0.4707579000       13.5781512200       18.7812286880
  C         4.2980579000        8.3527487800       12.8029713120
  C         7.1838421000        6.2678512200       28.5950713120
  C         6.5959688200        7.5076781000        3.1069377540
  C         4.8859311800        7.1129219000       18.8990377540
  C         1.0586311800        0.1973781000       12.6851622460
  C         2.7686688200       14.4232219000       28.4772622460
  C         0.2342307600        8.9024833400        1.6692249700
  C         3.5930692400        5.7181166600       17.4613249700
  C         7.4203692400        1.5921833400       14.1228750300
  C         4.0615307600       13.0284166600       29.9149750300
  C         3.8648075400        3.2808626400        1.4705603520
  C         7.6170924600       11.3397373600       17.2626603520
  C         3.7897924600       10.5911626400       14.3215396480
  C         0.0375075400        4.0294373600       30.1136396480
  C         1.0915459600       12.2213595400        3.1299942200
  C         2.7357540400        2.3992404600       18.9220942200
  C         6.5630540400        4.9110595400       12.6621057800
  C         4.9188459600        9.7095404600       28.4542057800
  C         4.2643776600        2.0615046000        1.0148003460
  C         7.2175223400       12.5590954000       16.8069003460
  C         3.3902223400        9.3718046000       14.7772996540
  C         0.4370776600        5.2487954000       30.5693996540
  C         6.9281784600       12.3617173000        4.6744616000
  C         4.5537215400        2.2588827000       20.4665616000
  C         0.7264215400        5.0514173000       11.1176384000
  C         3.1008784600        9.5691827000       26.9097384000
  C         6.9350676000        4.9563834000        3.2610686500
  C         4.5468324000        9.6642166000       19.0531686500
  C         0.7195324000       12.2666834000       12.5310313500
  C         3.1077676000        2.3539166000       28.3231313500
  C         4.0156031600        0.9401045800        1.7671359900
  C         7.4662968400       13.6804954200       17.5592359900
  C         3.6389968400        8.2504045800       14.0249640100
  C         0.1883031600        6.3701954200       29.8170640100
  C         1.0662857800       10.6423347400        5.0983215640
  C         2.7610142200        3.9782652600       20.8904215640
  C         6.5883142200        3.3320347400       10.6937784360
  C         4.8935857800       11.2885652600       26.4858784360
  C         0.8886990600        1.6433554400        4.7780577760
  C         2.9386009400       12.9772445600       20.5701577760
  C         6.7659009400        8.9536554400       11.0140422240
  C         4.7159990600        5.6669445600       26.8061422240
  C         2.4127299200       10.1174552000        4.6261377740
  C         1.4145700800        4.5031448000       20.4182377740
  C         5.2418700800        2.8071552000       11.1659622260
  C         6.2400299200       11.8134448000       26.9580622260
 Br         1.2639275520       13.6812264500        0.7055910280
 Br         2.5633724480        0.9393735500       16.4976910280
 Br         6.3906724480        6.3709264500       15.0865089720
 Br         5.0912275520        8.2496735500       30.8786089720
 Br         1.8240146340        9.1774968260        0.6740068280
 Br         2.0032853660        5.4431031740       16.4661068280
 Br         5.8305853660        1.8671968260       15.1180931720
 Br         5.6513146340       12.7534031740       30.9101931720
 Br         4.1833154460        4.8416116900        0.4330193820
 Br         7.2985845540        9.7789883100       16.2251193820
 Br         3.4712845540       12.1519116900       15.3590806180
 Br         0.3560154460        2.4686883100       31.1511806180
  N         7.1348526600        6.4023607400        5.2335019400
  N         4.3470473400        8.2182392600       21.0256019400
  N         0.5197473400       13.7126607400       10.5585980600
  N         3.3075526600        0.9079392600       26.3506980600
  N         3.0136160200        2.0088704400        5.9251959200
  N         0.8136839800       12.6117295600       21.7172959200
  N         4.6409839800        9.3191704400        9.8669040800
  N         6.8409160200        5.3014295600       25.6590040800
  N         1.2369833600       11.0721803800        6.5275066140
  N         2.5903166400        3.5484196200       22.3196066140
  N         6.4176166400        3.7618803800        9.2645933860
  N         5.0642833600       10.8587196200       25.0566933860
 Cl         2.6063913000        6.5098221500        4.5970803100
 Cl         1.2209087000        8.1107778500       20.3891803100
 Cl         5.0482087000       13.8201221500       11.1950196900
 Cl         6.4336913000        0.8004778500       26.9871196900
 Cl         5.0100887920        4.4067950460        6.4975016240
 Cl         6.4718112080       10.2138049540       22.2896016240
 Cl         2.6445112080       11.7170950460        9.2945983760
 Cl         1.1827887920        2.9035049540       25.0866983760
 Cl         1.3309818480        4.4696636260        7.4226028420
 Cl         2.4963181520       10.1509363740       23.2147028420
 Cl         6.3236181520       11.7799636260        8.3694971580
 Cl         5.1582818480        2.8406363740       24.1615971580
 Cl         4.1651740440        6.0890412820        9.7074038700
 Cl         7.3167259560        8.5315587180       25.4995038700
 Cl         3.4894259560       13.3993412820        6.0846961300
 Cl         0.3378740440        1.2212587180       21.8767961300
 Cl         5.0887780800        8.2618086480        6.8057634160
 Cl         6.3931219200        6.3587913520       22.5978634160
 Cl         2.5658219200        0.9515086480        8.9863365840
 Cl         1.2614780800       13.6690913520       24.7784365840
 Cl         1.4781032600        8.1775939920        7.8925757380
 Cl         2.3491967400        6.4430060080       23.6846757380
 Cl         6.1764967400        0.8672939920        7.8995242620
 Cl         5.3054032600       13.7533060080       23.6916242620
     280
 i =        3, E =     -1636.7538751098
 Eu         3.2464689520        6.3516272580        7.1879322360
 Eu         0.5808310480        8.2689727420       22.9800322360
 Eu         4.4081310480       13.6619272580        8.6041677640
 Eu         7.0737689520        0.9586727420       24.3962677640
  H         0.5099329854        6.5391883865        5.0979145554
  H         3.3175199743        8.0815966617       20.8897020790
  H         7.1448042063       13.8493775625       10.6945359780
  H         4.3371314537        0.7710888078       26.4863648750
  H         6.9989205000        5.5643977177        5.8252478512
  H         4.4828500751        9.0562852626       21.6172896426
  H         0.6560919574       12.8745364285        9.9671593321
  H         3.1713828239        1.7458767012       25.7589488828
  H         6.7272939244        7.1934580829        5.7749517512
  H         4.7545127217        7.4270385947       21.5670189652
  H         0.9273335194       14.5040535786       10.0175738567
  H         2.9000238228        0.1165838112       25.8094807473
  H         3.3188969597        1.0175669179        5.8506889304
  H         0.5083767930       13.6030457615       21.6427623356
  H         4.3356953478        8.3277739780        9.9412835528
  H         7.1459683760        6.2928634606       25.7333658012
  H         2.4846555870        2.0700086582        6.8148772883
  H         1.3424451713       12.5508043337       22.6070650122
  H         5.1702711540        9.3804409163        8.9774518797
  H         6.3116694242        5.2401120313       24.7694715388
  H         3.8416107052        2.6295005015        6.0482715656
  H        -0.0142918456       11.9910363218       21.8401614871
  H         3.8131787078        9.9400332477        9.7432215000
  H         7.6689171919        4.6808537559       25.5354575598
  H         6.5171236176       14.5749877061        2.1367368731
  H         4.9648955509        0.0458465010       17.9285573576
  H         1.1375359631        7.2645886394       13.6554235347
  H         2.6893813464        7.3564354685       29.4476813644
  H         1.9406700003       11.8340994668        6.5924809991
  H         1.8864253409        2.7866726897       22.3845619731
  H         5.7135699518        4.5235161430        9.1992716440
  H         5.7679599965       10.0968663576       24.9915216604
  H         1.5577665665       10.2664283083        7.1035241062
  H         2.2699529145        4.3542667589       22.8956352181
  H         6.0969694607        2.9560010411        8.6886109726
  H         5.3851650206       11.6643671806       24.4805280755
  H         0.3579439503       11.4063368269        6.9749633764
  H         3.4691379120        3.2140609794       22.7674510654
  H         7.2964894429        4.0965200113        8.8174345358
  H         4.1853516676       10.5245925010       24.6090323672
  H         1.9788697949        3.5017969439        4.9306715068
  H         1.8485069270       11.1188335562       20.7227838784
  H         5.6757333485       10.8120741337       10.8613606569
  H         5.8062282131        3.8085055569       26.6534583699
  H         5.3613844951        6.1291196268        4.1754558208
  H         6.1204396373        8.4914966574       19.9677500925
  H         2.2931670442       13.4394604617       11.6164774947
  H         1.5341490971        1.1811339287       27.4085707956
  H         4.9767971110       10.4099184992        2.4428727148
  H         6.5051453214        4.2107259473       18.2349220987
  H         2.6779573166        3.0994644711       13.3494814763
  H         1.1492381901       11.5212410966       29.1417720864
  H         4.7000828194        8.2897774305        3.7205471937
  H         6.7816972663        6.3306616560       19.5128953928
  H         2.9544308099        0.9795842802       12.0714119825
  H         0.8727653511       13.6411140014       27.8636855573
  H         2.9308280145        4.4018450141        3.0645450746
  H         0.8967125048       10.2187462909       18.8564923684
  H         4.7241373075       11.7121956951       12.7279324666
  H         6.7577707268        2.9084653243       28.5199291706
  H         7.0356525211       10.8001737802        1.1387113170
  H         4.4462916105        3.8204696278       16.9307282571
  H         0.6190380213        3.4897890386       14.6535524174
  H         3.2081720483       11.1309121228       30.4458390246
  H         0.8930968725        6.9849278406        2.3400916760
  H         2.9339776004        7.6354796639       18.1328533232
  H         6.7613249311       14.2953748730       13.4514637234
  H         4.7205839732        0.3251916007       29.2436329406
  H         5.4247479298       13.8236658349        4.2394870298
  H         6.0566382106        0.7965728523       20.0319093781
  H         2.2288837088        6.5139945729       11.5518160093
  H         1.5977248565        8.1069851884       27.3447068648
  H         3.1479966119        0.1420346755        3.5640975096
  H         0.6791997544       14.4784631142       19.3563035523
  H         4.5071070800        7.4525618066       12.2279877892
  H         6.9751367615        7.1681728977       28.0200526312
  H         2.0241240546       11.7849403814        2.7883082801
  H         1.8032120105        2.8357124994       18.5803748189
  H         5.6304745933        4.4746426363       13.0037885679
  H         5.8513977054       10.1460037906       28.7959053373
  H         4.7808761528        1.9762727152        0.0619180107
  H         6.7011970345       12.6443727581       15.8539262002
  H         2.8738137333        9.2865489524       15.7302263727
  H         0.9534124470        5.3340328648       31.5223680137
  H         6.4071453823       12.0285750939        5.5708477050
  H         5.0747724993        2.5920830299       21.3629129722
  H         1.2475276294        4.7181365354       10.2213500266
  H         2.5797836549        9.9024651788       26.0134336261
  H         0.3711504550        4.9739886272        3.1403699552
  H         3.4561262734        9.6463956151       18.9325988057
  H         7.2834185487       12.2844873858       12.6515716232
  H         4.1984668284        2.3362207670       28.4437027703
  H         6.4755272142        4.8346145823        2.2723639264
  H         5.0063461234        9.7858830249       18.0644416479
  H         1.1789539475       12.1449963565       13.5197973044
  H         2.6483651506        2.4756526602       29.3119015462
  H         6.6663082167        4.0895689434        3.8777854293
  H         4.8155784061       10.5310752245       19.6698256059
  H         0.9883730937       11.3999065566       11.9142969883
  H         2.8389543382        3.2207006795       27.7064002830
  H         4.3198775184       -0.0339984741        1.3937950053
  H         7.1619623454       14.6544720778       17.1857839683
  H         3.3348278615        7.2765591035       14.3987320061
  H         0.4923731903        7.3441457292       30.1906828241
  H         0.3283226342        9.8280991125        5.1267309264
  H         3.4990460867        4.7924456485       20.9188914270
  H         7.3263474788        2.5178440536       10.6653940745
  H         4.1555826088       12.1027894884       26.4574738410
  H         1.0773689981        0.5640461498        4.7155493120
  H         2.7499730227       14.0565563269       20.5077213363
  H         6.5773425688        7.8743386337       11.0765263639
  H         4.9047291723        6.7462598387       26.8683942858
  H         0.2678594637        1.9202642595        3.9176166775
  H         3.5594124677       12.7005065234       19.7096120784
  H         7.3867693577        9.2305536895       11.8744623248
  H         4.0951075744        5.3902427778       27.6665911017
  H         0.3175045162        1.8351586449        5.6970655473
  H         3.5098271500       12.7851848555       21.4890891334
  H         7.3370966521        9.1456068035       10.0950672688
  H         4.1448330042        5.4749060760       25.8871673848
  H         3.1627051074       10.9182064147        4.6170766858
  H         0.6646129871        3.7023808547       20.4093377463
  H         4.4919320376        3.6079552279       11.1748980335
  H         6.9900408121       11.0127318399       26.9669740527
  H         2.3252762970        9.6892260549        3.6206442851
  H         1.5020318185        4.9312803122       19.4127046611
  H         5.3293284495        2.3790312814       12.1715012644
  H         6.1525750666       12.2415751345       27.9636003628
  H         2.7683293129        9.3215728561        5.2897132871
  H         1.0589613800        5.2991626752       21.0816574440
  H         4.8862832859        2.0112515925       10.5023758933
  H         6.5955186706       12.6094490557       26.2944898154
  C         6.9672169200       13.7959981600        2.7446669800
  C         4.5146830800        0.8246018400       18.5367669800
  C         0.6873830800        6.4856981600       13.0474330200
  C         3.1399169200        8.1349018400       28.8395330200
  C         0.4906598600       13.2170224000        2.3659724220
  C         3.3366401400        1.4035776000       18.1580724220
  C         7.1639401400        5.9067224000       13.4261275780
  C         4.3179598600        8.7138776000       29.2182275780
  C         2.1769682400        2.4372540200        4.7584755720
  C         1.6503317600       12.1833459800       20.5505755720
  C         5.4776317600        9.7475540200       11.0336244280
  C         6.0042682400        4.8730459800       26.8257244280
  C         6.4268021600        6.2342238400        3.9148615900
  C         5.0550978400        8.3863761600       19.7069615900
  C         1.2277978400       13.5445238400       11.8772384100
  C         2.5995021600        1.0760761600       27.6693384100
  C         0.4860671000       11.7871277200        4.2878709920
  C         3.3412329000        2.8334722800       20.0799709920
  C         7.1685329000        4.4768277200       11.5042290080
  C         4.3133671000       10.1437722800       27.2963290080
  C         5.7554937400        9.6510580600        2.4300883480
  C         5.7264062600        4.9695419400       18.2221883480
  C         1.8991062600        2.3407580600       13.3620116520
  C         1.9281937400       12.2798419400       29.1541116520
  C         5.6016362800        8.4740997600        3.1401011640
  C         5.8802637200        6.1465002400       18.9322011640
  C         2.0529637200        1.1637997600       12.6519988360
  C         1.7743362800       13.4568002400       28.4440988360
  C         3.2187593000        3.4182962800        2.7007649420
  C         0.6085407000       11.2023037200       18.4928649420
  C         4.4358407000       10.7285962800       13.0913350580
  C         7.0460593000        3.8920037200       28.8834350580
  C         6.9075110400        9.8791394200        1.6976507500
  C         4.5743889600        4.7414605800       17.4897507500
  C         0.7470889600        2.5688394200       14.0944492500
  C         3.0802110400       12.0517605800       29.8865492500
  C         2.9585029000        2.2851997800        3.4537322700
  C         0.8687971000       12.3354002200       19.2458322700
  C         4.6960971000        9.5954997800       12.3383677300
  C         6.7858029000        5.0251002200       28.1304677300
  C         0.0987443400        7.7240629800        2.3669199480
  C         3.7285556600        6.8965370200       18.1590199480
  C         7.5558556600        0.4137629800       13.4251800520
  C         3.9260443400       14.2068370200       29.2172800520
  C         6.3602071400       13.3763869400        3.9126506960
  C         5.1216928600        1.2442130600       19.7047506960
  C         1.2943928600        6.0660869400       11.8794493040
  C         2.5329071400        8.5545130600       27.6715493040
  C         3.3565421000        1.0424487800        2.9891286880
  C         0.4707579000       13.5781512200       18.7812286880
  C         4.2980579000        8.3527487800       12.8029713120
  C         7.1838421000        6.2678512200       28.5950713120
  C         6.5959688200        7.5076781000        3.1069377540
  C         4.8859311800        7.1129219000       18.8990377540
  C         1.0586311800        0.1973781000       12.6851622460
  C         2.7686688200       14.4232219000       28.4772622460
  C         0.2342307600        8.9024833400        1.6692249700
  C         3.5930692400        5.7181166600       17.4613249700
  C         7.4203692400        1.5921833400       14.1228750300
  C         4.0615307600       13.0284166600       29.9149750300
  C         3.8648075400        3.2808626400        1.4705603520
  C         7.6170924600       11.3397373600       17.2626603520
  C         3.7897924600       10.5911626400       14.3215396480
  C         0.0375075400        4.0294373600       30.1136396480
  C         1.0915459600       12.2213595400        3.1299942200
  C         2.7357540400        2.3992404600       18.9220942200
  C         6.5630540400        4.9110595400       12.6621057800
  C         4.9188459600        9.7095404600       28.4542057800
  C         4.2643776600        2.0615046000        1.0148003460
  C         7.2175223400       12.5590954000       16.8069003460
  C         3.3902223400        9.3718046000       14.7772996540
  C         0.4370776600        5.2487954000       30.5693996540
  C         6.9281784600       12.3617173000        4.6744616000
  C         4.5537215400        2.2588827000       20.4665616000
  C         0.7264215400        5.0514173000       11.1176384000
  C         3.1008784600        9.5691827000       26.9097384000
  C         6.9350676000        4.9563834000        3.2610686500
  C         4.5468324000        9.6642166000       19.0531686500
  C         0.7195324000       12.2666834000       12.5310313500
  C         3.1077676000        2.3539166000       28.3231313500
  C         4.0156031600        0.9401045800        1.7671359900
  C         7.4662968400       13.6804954200       17.5592359900
  C         3.6389968400        8.2504045800       14.0249640100
  C         0.1883031600        6.3701954200       29.8170640100
  C         1.0662857800       10.6423347400        5.0983215640
  C         2.7610142200        3.9782652600       20.8904215640
  C         6.5883142200        3.3320347400       10.6937784360
  C         4.8935857800       11.2885652600       26.4858784360
  C         0.8886990600        1.6433554400        4.7780577760
  C         2.9386009400       12.9772445600       20.5701577760
  C         6.7659009400        8.9536554400       11.0140422240
  C         4.7159990600        5.6669445600       26.8061422240
  C         2.4127299200       10.1174552000        4.6261377740
  C         1.4145700800        4.5031448000       20.4182377740
  C         5.2418700800        2.8071552000       11.1659622260
  C         6.2400299200       11.8134448000       26.9580622260
 Br         1.2639275520       13.6812264500        0.7055910280
 Br         2.5633724480        0.9393735500       16.4976910280
 Br         6.3906724480        6.3709264500       15.0865089720
 Br         5.0912275520        8.2496735500       30.8786089720
 Br         1.8240146340        9.1774968260        0.6740068280
 Br         2.0032853660        5.4431031740       16.4661068280
 Br         5.8305853660        1.8671968260       15.1180931720
 Br         5.6513146340       12.7534031740       30.9101931720
 Br         4.1833154460        4.8416116900        0.4330193820
 Br         7.2985845540        9.7789883100       16.2251193820
 Br         3.4712845540       12.1519116900       15.3590806180
 Br         0.3560154460        2.4686883100       31.1511806180
  N         7.1348526600        6.4023607400        5.2335019400
  N         4.3470473400        8.2182392600       21.0256019400
  N         0.5197473400       13.7126607400       10.5585980600
  N         3.3075526600        0.9079392600       26.3506980600
  N         3.0136160200        2.0088704400        5.9251959200
  N         0.8136839800       12.6117295600       21.7172959200
  N         4.6409839800        9.3191704400        9.8669040800
  N         6.8409160200        5.3014295600       25.6590040800
  N         1.2369833600       11.0721803800        6.5275066140
  N         2.5903166400        3.5484196200       22.3196066140
  N         6.4176166400        3.7618803800        9.2645933860
  N         5.0642833600       10.8587196200       25.0566933860
 Cl         2.6063913000        6.5098221500        4.5970803100
 Cl         1.2209087000        8.1107778500       20.3891803100
 Cl         5.0482087000       13.8201221500       11.1950196900
 Cl         6.4336913000        0.8004778500       26.9871196900
 Cl         5.0100887920        4.4067950460        6.4975016240
 Cl         6.4718112080       10.2138049540       22.2896016240
 Cl         2.6445112080       11.7170950460        9.2945983760
 Cl         1.1827887920        2.9035049540       25.0866983760
 Cl         1.3309818480        4.4696636260        7.4226028420
 Cl         2.4963181520       10.1509363740       23.2147028420
 Cl         6.3236181520       11.7799636260        8.3694971580
 Cl         5.1582818480        2.8406363740       24.1615971580
 Cl         4.1651740440        6.0890412820        9.7074038700
 Cl         7.3167259560        8.5315587180       25.4995038700
 Cl         3.4894259560       13.3993412820        6.0846961300
 Cl         0.3378740440        1.2212587180       21.8767961300
 Cl         5.0887780800        8.2618086480        6.8057634160
 Cl         6.3931219200        6.3587913520       22.5978634160
 Cl         2.5658219200        0.9515086480        8.9863365840
 Cl         1.2614780800       13.6690913520       24.7784365840
 Cl         1.4781032600        8.1775939920        7.8925757380
 Cl         2.3491967400        6.4430060080       23.6846757380
 Cl         6.1764967400        0.8672939920        7.8995242620
 Cl         5.3054032600       13.7533060080       23.6916242620
     280
 i =        4, E =     -1636.7550523717
 Eu         3.2464689520        6.3516272580        7.1879322360
 Eu         0.5808310480        8.2689727420       22.9800322360
 Eu         4.4081310480       13.6619272580        8.6041677640
 Eu         7.0737689520        0.9586727420       24.3962677640
  H         0.5126124884        6.5400695368        5.0974775627
  H         3.3148673616        8.0806987982       20.8892768877
  H         7.1421215442       13.8502740244       10.6948615648
  H         4.3397856418        0.7701754547       26.4867604153
  H         6.9977962869        5.5618864511        5.8232629866
  H         4.4840174194        9.0587657579       21.6153412263
  H         0.6573039443       12.8721180064        9.9690481848
  H         3.1701970027        1.7483705411       25.7609086600
  H         6.7246497607        7.1936708390        5.7763315112
  H         4.7571775756        7.4267757654       21.5683350407
  H         0.9300663480       14.5043055260       10.0162670494
  H         2.8974360646        0.1163082578       25.8081310507
  H         3.3176312112        1.0156172388        5.8506473035
  H         0.5097522193       13.6050391150       21.6425522139
  H         4.3369817696        8.3258133286        9.9413401926
  H         7.1445932261        6.2948566144       25.7334158127
  H         2.4819043220        2.0730674636        6.8144934425
  H         1.3451571848       12.5478716063       22.6066803876
  H         5.1730609449        9.3833426658        8.9778689323
  H         6.3089143061        5.2371678371       24.7698468737
  H         3.8430908761        2.6309362550        6.0472747919
  H        -0.0158828612       11.9897455625       21.8391081952
  H         3.8115583976        9.9412618084        9.7441792982
  H         7.6704584527        4.6795121890       25.5364128442
  H         6.5166705938       14.5756171942        2.1359819526
  H         4.9652437941        0.0450654038       17.9279077540
  H         1.1379737689        7.2652258177       13.6561855291
  H         2.6890078666        7.3556986309       29.4483665549
  H         1.9437843783       11.8334801417        6.5916968654
  H         1.8832616915        2.7873375041       22.3837947873
  H         5.7104352994        4.5228596112        9.2000014702
  H         5.7710546704       10.0974920890       24.9922588013
  H         1.5583468018       10.2628491929        7.1018127660
  H         2.2695730854        4.3579143802       22.8939669741
  H         6.0968091655        2.9522616037        8.6902505813
  H         5.3856051906       11.6680335482       24.4822498478
  H         0.3569059062       11.4067799005        6.9761441840
  H         3.4701332972        3.2135253034       22.7685188660
  H         7.2974610410        4.0970642263        8.8163608206
  H         4.1843148617       10.5241339337       24.6079429898
  H         1.9771182627        3.5018486179        4.9294553420
  H         1.8502894411       11.1187824142       20.7215430558
  H         5.6775109953       10.8121248325       10.8625773705
  H         5.8044705065        3.8084521614       26.6547182932
  H         5.3603390309        6.1279414002        4.1736921544
  H         6.1214847060        8.4926769938       19.9659691843
  H         2.2942101458       13.4382890908       11.6182704884
  H         1.5331086609        1.1823383068       27.4103335489
  H         4.9755961540       10.4102891962        2.4426184333
  H         6.5063278427        4.2103362389       18.2346869345
  H         2.6791135514        3.0998802843       13.3496716058
  H         1.1481017763       11.5208052476       29.1419181105
  H         4.6985347193        8.2890295007        3.7200431422
  H         6.7832354057        6.3314030526       19.5124079468
  H         2.9559364397        0.9788685123       12.0718516134
  H         0.8712461477       13.6418183801       27.8641299967
  H         2.9314804488        4.4029850710        3.0655512217
  H         0.8961025636       10.2176173574       18.8575031771
  H         4.7234307622       11.7133348897       12.7268919416
  H         6.7584578750        2.9073424355       28.5188406701
  H         7.0349274098       10.8000775986        1.1365174582
  H         4.4470099316        3.8205546504       16.9285548666
  H         0.6197413896        3.4897091255       14.6557118680
  H         3.2074887098       11.1309691821       30.4479541701
  H         0.8940856198        6.9844278958        2.3411888262
  H         2.9329797612        7.6359691728       18.1339523766
  H         6.7602885469       14.2949291219       13.4503303890
  H         4.7215774152        0.3256843759       29.2425349014
  H         5.4230342199       13.8233073134        4.2386197335
  H         6.0582487019        0.7967489922       20.0310957504
  H         2.2304874536        6.5138224243       11.5525763962
  H         1.5960560264        8.1072395134       27.3455525175
  H         3.1456244995        0.1414395550        3.5645430742
  H         0.6817429572       14.4790449321       19.3567083317
  H         4.5095094423        7.4519701467       12.2275491596
  H         6.9727368857        7.1687634206       28.0196013309
  H         2.0235711143       11.7823624206        2.7870456356
  H         1.8037602528        2.8382813607       18.5791150661
  H         5.6310271692        4.4720622905       13.0050457704
  H         5.8508490933       10.1485707631       28.7971664437
  H         4.7815045456        1.9766415761        0.0609017619
  H         6.7005054426       12.6439970447       15.8529435253
  H         2.8731762020        9.2869179867       15.7312373888
  H         0.9540726713        5.3336603443       31.5233666691
  H         6.4073851468       12.0267591411        5.5717208361
  H         5.0745530754        2.5938905326       21.3637808727
  H         1.2473084682        4.7163827455       10.2204641784
  H         2.5800292746        9.9042392751       26.0125381685
  H         0.3717778646        4.9729993773        3.1396985765
  H         3.4554901951        9.6473883230       18.9319643864
  H         7.2827913608       12.2834602043       12.6522503192
  H         4.1990981624        2.3372194560       28.4443689688
  H         6.4751664740        4.8329984895        2.2717693651
  H         5.0066866154        9.7875221098       18.0638410922
  H         1.1793020936       12.1433568380       13.5203946937
  H         2.6479930480        2.4772740379       29.3124901144
  H         6.6664433470        4.0886385652        3.8782372737
  H         4.8154260810       10.5320078461       19.6702813273
  H         0.9882092660       11.3989631405       11.9138523198
  H         2.8390941492        3.2216361151       27.7059528635
  H         4.3181212059       -0.0352490444        1.3924361932
  H         7.1637397780       14.6557110633       17.1844011811
  H         3.3365937472        7.2752921473       14.4000745308
  H         0.4906656387        7.3453823511       30.1920183952
  H         0.3288189555        9.8270005331        5.1245674568
  H         3.4985377361        4.7935523016       20.9167281157
  H         7.3258436579        2.5167411625       10.6675393777
  H         4.1560953025       12.1039008068       26.4596326496
  H         1.0776867238        0.5634699602        4.7144686992
  H         2.7496486861       14.0571341562       20.5066970660
  H         6.5770131849        7.8737632563       11.0776043471
  H         4.9050538691        6.7468388909       26.8694300707
  H         0.2671829585        1.9204972405        3.9168957504
  H         3.5600757645       12.7002381898       19.7088901891
  H         7.3874239285        9.2308059779       11.8751940533
  H         4.0944485592        5.3899907382       27.6673189399
  H         0.3160755101        1.8340620706        5.6974351130
  H         3.5112449838       12.7862602393       21.4894623687
  H         7.3385629888        9.1444806175       10.0947111594
  H         4.1433809514        5.4759952125       25.8868115150
  H         3.1636307602       10.9184617746        4.6168082088
  H         0.6636613107        3.7021505796       20.4090853899
  H         4.4909881931        3.6081955943       11.1751555416
  H         6.9909762460       11.0124857110       26.9672757150
  H         2.3265526808        9.6884935477        3.6200122653
  H         1.5007560237        4.9319643105       19.4120523982
  H         5.3280499472        2.3782877050       12.1721286108
  H         6.1538529437       12.2423074407       27.9642307012
  H         2.7690573612        9.3216476180        5.2906432646
  H         1.0582656992        5.2991328125       21.0825350804
  H         4.8855900496        2.0112890203       10.5014729623
  H         6.5962295827       12.6093928060       26.2935821342
  C         6.9672169200       13.7959981600        2.7446669800
  C         4.5146830800        0.8246018400       18.5367669800
  C         0.6873830800        6.4856981600       13.0474330200
  C         3.1399169200        8.1349018400       28.8395330200
  C         0.4906598600       13.2170224000        2.3659724220
  C         3.3366401400        1.4035776000       18.1580724220
  C         7.1639401400        5.9067224000       13.4261275780
  C         4.3179598600        8.7138776000       29.2182275780
  C         2.1769682400        2.4372540200        4.7584755720
  C         1.6503317600       12.1833459800       20.5505755720
  C         5.4776317600        9.7475540200       11.0336244280
  C         6.0042682400        4.8730459800       26.8257244280
  C         6.4268021600        6.2342238400        3.9148615900
  C         5.0550978400        8.3863761600       19.7069615900
  C         1.2277978400       13.5445238400       11.8772384100
  C         2.5995021600        1.0760761600       27.6693384100
  C         0.4860671000       11.7871277200        4.2878709920
  C         3.3412329000        2.8334722800       20.0799709920
  C         7.1685329000        4.4768277200       11.5042290080
  C         4.3133671000       10.1437722800       27.2963290080
  C         5.7554937400        9.6510580600        2.4300883480
  C         5.7264062600        4.9695419400       18.2221883480
  C         1.8991062600        2.3407580600       13.3620116520
  C         1.9281937400       12.2798419400       29.1541116520
  C         5.6016362800        8.4740997600        3.1401011640
  C         5.8802637200        6.1465002400       18.9322011640
  C         2.0529637200        1.1637997600       12.6519988360
  C         1.7743362800       13.4568002400       28.4440988360
  C         3.2187593000        3.4182962800        2.7007649420
  C         0.6085407000       11.2023037200       18.4928649420
  C         4.4358407000       10.7285962800       13.0913350580
  C         7.0460593000        3.8920037200       28.8834350580
  C         6.9075110400        9.8791394200        1.6976507500
  C         4.5743889600        4.7414605800       17.4897507500
  C         0.7470889600        2.5688394200       14.0944492500
  C         3.0802110400       12.0517605800       29.8865492500
  C         2.9585029000        2.2851997800        3.4537322700
  C         0.8687971000       12.3354002200       19.2458322700
  C         4.6960971000        9.5954997800       12.3383677300
  C         6.7858029000        5.0251002200       28.1304677300
  C         0.0987443400        7.7240629800        2.3669199480
  C         3.7285556600        6.8965370200       18.1590199480
  C         7.5558556600        0.4137629800       13.4251800520
  C         3.9260443400       14.2068370200       29.2172800520
  C         6.3602071400       13.3763869400        3.9126506960
  C         5.1216928600        1.2442130600       19.7047506960
  C         1.2943928600        6.0660869400       11.8794493040
  C         2.5329071400        8.5545130600       27.6715493040
  C         3.3565421000        1.0424487800        2.9891286880
  C         0.4707579000       13.5781512200       18.7812286880
  C         4.2980579000        8.3527487800       12.8029713120
  C         7.1838421000        6.2678512200       28.5950713120
  C         6.5959688200        7.5076781000        3.1069377540
  C         4.8859311800        7.1129219000       18.8990377540
  C         1.0586311800        0.1973781000       12.6851622460
  C         2.7686688200       14.4232219000       28.4772622460
  C         0.2342307600        8.9024833400        1.6692249700
  C         3.5930692400        5.7181166600       17.4613249700
  C         7.4203692400        1.5921833400       14.1228750300
  C         4.0615307600       13.0284166600       29.9149750300
  C         3.8648075400        3.2808626400        1.4705603520
  C         7.6170924600       11.3397373600       17.2626603520
  C         3.7897924600       10.5911626400       14.3215396480
  C         0.0375075400        4.0294373600       30.1136396480
  C         1.0915459600       12.2213595400        3.1299942200
  C         2.7357540400        2.3992404600       18.9220942200
  C         6.5630540400        4.9110595400       12.6621057800
  C         4.9188459600        9.7095404600       28.4542057800
  C         4.2643776600        2.0615046000        1.0148003460
  C         7.2175223400       12.5590954000       16.8069003460
  C         3.3902223400        9.3718046000       14.7772996540
  C         0.4370776600        5.2487954000       30.5693996540
  C         6.9281784600       12.3617173000        4.6744616000
  C         4.5537215400        2.2588827000       20.4665616000
  C         0.7264215400        5.0514173000       11.1176384000
  C         3.1008784600        9.5691827000       26.9097384000
  C         6.9350676000        4.9563834000        3.2610686500
  C         4.5468324000        9.6642166000       19.0531686500
  C         0.7195324000       12.2666834000       12.5310313500
  C         3.1077676000        2.3539166000       28.3231313500
  C         4.0156031600        0.9401045800        1.7671359900
  C         7.4662968400       13.6804954200       17.5592359900
  C         3.6389968400        8.2504045800       14.0249640100
  C         0.1883031600        6.3701954200       29.8170640100
  C         1.0662857800       10.6423347400        5.0983215640
  C         2.7610142200        3.9782652600       20.8904215640
  C         6.5883142200        3.3320347400       10.6937784360
  C         4.8935857800       11.2885652600       26.4858784360
  C         0.8886990600        1.6433554400        4.7780577760
  C         2.9386009400       12.9772445600       20.5701577760
  C         6.7659009400        8.9536554400       11.0140422240
  C         4.7159990600        5.6669445600       26.8061422240
  C         2.4127299200       10.1174552000        4.6261377740
  C         1.4145700800        4.5031448000       20.4182377740
  C         5.2418700800        2.8071552000       11.1659622260
  C         6.2400299200       11.8134448000       26.9580622260
 Br         1.2639275520       13.6812264500        0.7055910280
 Br         2.5633724480        0.9393735500       16.4976910280
 Br         6.3906724480        6.3709264500       15.0865089720
 Br         5.0912275520        8.2496735500       30.8786089720
 Br         1.8240146340        9.1774968260        0.6740068280
 Br         2.0032853660        5.4431031740       16.4661068280
 Br         5.8305853660        1.8671968260       15.1180931720
 Br         5.6513146340       12.7534031740       30.9101931720
 Br         4.1833154460        4.8416116900        0.4330193820
 Br         7.2985845540        9.7789883100       16.2251193820
 Br         3.4712845540       12.1519116900       15.3590806180
 Br         0.3560154460        2.4686883100       31.1511806180
  N         7.1348526600        6.4023607400        5.2335019400
  N         4.3470473400        8.2182392600       21.0256019400
  N         0.5197473400       13.7126607400       10.5585980600
  N         3.3075526600        0.9079392600       26.3506980600
  N         3.0136160200        2.0088704400        5.9251959200
  N         0.8136839800       12.6117295600       21.7172959200
  N         4.6409839800        9.3191704400        9.8669040800
  N         6.8409160200        5.3014295600       25.6590040800
  N         1.2369833600       11.0721803800        6.5275066140
  N         2.5903166400        3.5484196200       22.3196066140
  N         6.4176166400        3.7618803800        9.2645933860
  N         5.0642833600       10.8587196200       25.0566933860
 Cl         2.6063913000        6.5098221500        4.5970803100
 Cl         1.2209087000        8.1107778500       20.3891803100
 Cl         5.0482087000       13.8201221500       11.1950196900
 Cl         6.4336913000        0.8004778500       26.9871196900
 Cl         5.0100887920        4.4067950460        6.4975016240
 Cl         6.4718112080       10.2138049540       22.2896016240
 Cl         2.6445112080       11.7170950460        9.2945983760
 Cl         1.1827887920        2.9035049540       25.0866983760
 Cl         1.3309818480        4.4696636260        7.4226028420
 Cl         2.4963181520       10.1509363740       23.2147028420
 Cl         6.3236181520       11.7799636260        8.3694971580
 Cl         5.1582818480        2.8406363740       24.1615971580
 Cl         4.1651740440        6.0890412820        9.7074038700
 Cl         7.3167259560        8.5315587180       25.4995038700
 Cl         3.4894259560       13.3993412820        6.0846961300
 Cl         0.3378740440        1.2212587180       21.8767961300
 Cl         5.0887780800        8.2618086480        6.8057634160
 Cl         6.3931219200        6.3587913520       22.5978634160
 Cl         2.5658219200        0.9515086480        8.9863365840
 Cl         1.2614780800       13.6690913520       24.7784365840
 Cl         1.4781032600        8.1775939920        7.8925757380
 Cl         2.3491967400        6.4430060080       23.6846757380
 Cl         6.1764967400        0.8672939920        7.8995242620
 Cl         5.3054032600       13.7533060080       23.6916242620
     280
 i =        5, E =     -1636.7547458441
 Eu         3.2464689520        6.3516272580        7.1879322360
 Eu         0.5808310480        8.2689727420       22.9800322360
 Eu         4.4081310480       13.6619272580        8.6041677640
 Eu         7.0737689520        0.9586727420       24.3962677640
  H         0.5138157499        6.5410491114        5.0968459720
  H         3.3136853875        8.0797252559       20.8886231512
  H         7.1409194977       13.8512997844       10.6954659295
  H         4.3409684449        0.7692235244       26.4874181548
  H         6.9976363040        5.5605096800        5.8215156510
  H         4.4841674167        9.0601111752       21.6136399641
  H         0.6575211002       12.8708066077        9.9707331034
  H         3.1700309152        1.7497289493       25.7626233695
  H         6.7227713014        7.1930505347        5.7772852019
  H         4.7590906325        7.4273730650       21.5692330192
  H         0.9319807762       14.5037286069       10.0154070688
  H         2.8955646905        0.1169003100       25.8072159876
  H         3.3159946203        1.0146420684        5.8509863493
  H         0.5115307183       13.6060704947       21.6427607721
  H         4.3387441524        8.3248026124        9.9410414963
  H         7.1428291992        6.2958768270       25.7331185743
  H         2.4806368222        2.0758374276        6.8138243482
  H         1.3463321142       12.5452486245       22.6060511633
  H         5.1742829269        9.3859372586        8.9785328947
  H         6.3076906645        5.2345173924       24.7704827722
  H         3.8439961234        2.6311928021        6.0463519326
  H        -0.0168833355       11.9896260579       21.8380774036
  H         3.8105123731        9.9413367575        9.7451864102
  H         7.6714186060        4.6793468782       25.5373910643
  H         6.5164756517       14.5755091021        2.1358327558
  H         4.9653548043        0.0450420895       17.9278713899
  H         1.1381628532        7.2651296577       13.6563229543
  H         2.6888959028        7.3557025551       29.4484537675
  H         1.9455677257       11.8325616060        6.5911764541
  H         1.8814181460        2.7883255287       22.3832652988
  H         5.7085870493        4.5218325592        9.2004237926
  H         5.7728385282       10.0984425366       24.9927668549
  H         1.5579008307       10.2607388956        7.1006269623
  H         2.2702898384        4.3600995159       22.8928457191
  H         6.0977764454        2.9499779204        8.6913011246
  H         5.3849570519       11.6702239728       24.4834092785
  H         0.3568651827       11.4073122266        6.9765509372
  H         3.4701499189        3.2129141133       22.7688586444
  H         7.2973923903        4.0977751993        8.8159301105
  H         4.1842633554       10.5236213444       24.6075604540
  H         1.9760581981        3.5014906606        4.9285724564
  H         1.8513883776       11.1191429744       20.7206417545
  H         5.6786069680       10.8117628066       10.8634644429
  H         5.8033890886        3.8088116696       26.6556256495
  H         5.3601080557        6.1271084640        4.1723885961
  H         6.1217230646        8.4934983422       19.9646495943
  H         2.2944484201       13.4374473091       11.6196223927
  H         1.5328729923        1.1831734217       27.4116433172
  H         4.9750418148       10.4098972953        2.4421905530
  H         6.5068660079        4.2107127726       18.2342826857
  H         2.6796248589        3.0995308546       13.3500255409
  H         1.1476117594       11.5211333016       29.1422330678
  H         4.6978442644        8.2886214316        3.7190743818
  H         6.7839093804        6.3317775886       19.5114724519
  H         2.9565875818        0.9785189320       12.0727507358
  H         0.8705955878       13.6421568013       27.8650168383
  H         2.9322585675        4.4032079735        3.0660613800
  H         0.8953648773       10.2174134895       18.8580318817
  H         4.7225909079       11.7135442835       12.7263149056
  H         6.7592739728        2.9071341494       28.5182590510
  H         7.0341407214       10.7993197768        1.1350599248
  H         4.4477872351        3.8213019078       16.9271182717
  H         0.6205085102        3.4889705538       14.6571311034
  H         3.2067424147       11.1316843974       30.4493300548
  H         0.8943376011        6.9845606031        2.3421691485
  H         2.9327410488        7.6358453632       18.1349067174
  H         6.7600285882       14.2950803785       13.4493692591
  H         4.7218147432        0.3255626553       29.2415767532
  H         5.4223520624       13.8227105488        4.2376508389
  H         6.0589124924        0.7972447963       20.0301480497
  H         2.2311546253        6.5133275119       11.5535209176
  H         1.5953562119        8.1077935929       27.3465236061
  H         3.1437013032        0.1414728822        3.5641730083
  H         0.6837995078       14.4790242980       19.3562804775
  H         4.5114256523        7.4519731528       12.2279466915
  H         6.9708046257        7.1687359989       28.0199709806
  H         2.0223783931       11.7804745814        2.7861815274
  H         1.8049457385        2.8401551507       18.5782565261
  H         5.6322148118        4.4701817965       13.0059027802
  H         5.8496627262       10.1504457974       28.7980291616
  H         4.7815114516        1.9768475112        0.0607251031
  H         6.7004415270       12.6437818415       15.8527975512
  H         2.8731602931        9.2871242482       15.7314087619
  H         0.9541135131        5.3334517394       31.5235254705
  H         6.4077103962       12.0255610583        5.5716466515
  H         5.0742406082        2.5950769626       21.3637077549
  H         1.2469945099        4.7152566566       10.2205183425
  H         2.5803617966        9.9053944926       26.0125877246
  H         0.3715815712        4.9727595382        3.1393427834
  H         3.4556797440        9.6476349264       18.9316485181
  H         7.2829898404       12.2831854061       12.6526136865
  H         4.1989040351        2.3374708799       28.4447176493
  H         6.4749211226        4.8321736333        2.2720220173
  H         5.0069149487        9.7883691236       18.0640895334
  H         1.1795469928       12.1425100138       13.5201396361
  H         2.6477331428        2.4781050773       29.3122303129
  H         6.6666956460        4.0888651768        3.8787553426
  H         4.8151401639       10.5318031770       19.6707827523
  H         0.9879183142       11.3991642366       11.9133519906
  H         2.8393746650        3.2214350887       27.7054577812
  H         4.3163901481       -0.0355459028        1.3915744749
  H         7.1655035035       14.6560266339       17.1835430416
  H         3.3383398282        7.2749588040       14.4008899821
  H         0.4889738243        7.3456880666       30.1928408028
  H         0.3295439727        9.8265266298        5.1230482488
  H         3.4978083841        4.7940275628       20.9152082247
  H         7.3251078900        2.5162616431       10.6690441610
  H         4.1568242975       12.1043754481       26.4611402222
  H         1.0781874204        0.5637523194        4.7134998156
  H         2.7491445182       14.0568545442       20.5057757741
  H         6.5764931494        7.8740479567       11.0785759610
  H         4.9055629850        6.7465585024       26.8703604503
  H         0.2672947239        1.9208008865        3.9168239660
  H         3.5599431128       12.6999120264       19.7088160650
  H         7.3872891445        9.2311175357       11.8752790594
  H         4.0945855143        5.3896855876       27.6674083249
  H         0.3159095782        1.8330877992        5.6974408535
  H         3.5113801567       12.7871890707       21.4894745955
  H         7.3387680561        9.1434784244       10.0947245971
  H         4.1432176918        5.4769345527       25.8868145692
  H         3.1634848497       10.9185440153        4.6166685784
  H         0.6637814935        3.7020924767       20.4089940192
  H         4.4911300874        3.6082757345       11.1752510201
  H         6.9908417575       11.0124134836       26.9674181651
  H         2.3271586917        9.6880335250        3.6202719111
  H         1.5001572115        4.9323623406       19.4122864640
  H         5.3274431791        2.3778330944       12.1718707284
  H         6.1544481604       12.2427633469       27.9639716701
  H         2.7691522675        9.3223337078        5.2912989069
  H         1.0581827987        5.2984873304       21.0831145963
  H         4.8855246563        2.0119539318       10.5008580549
  H         6.5963411354       12.6087079140       26.2929644127
  C         6.9672169200       13.7959981600        2.7446669800
  C         4.5146830800        0.8246018400       18.5367669800
  C         0.6873830800        6.4856981600       13.0474330200
  C         3.1399169200        8.1349018400       28.8395330200
  C         0.4906598600       13.2170224000        2.3659724220
  C         3.3366401400        1.4035776000       18.1580724220
  C         7.1639401400        5.9067224000       13.4261275780
  C         4.3179598600        8.7138776000       29.2182275780
  C         2.1769682400        2.4372540200        4.7584755720
  C         1.6503317600       12.1833459800       20.5505755720
  C         5.4776317600        9.7475540200       11.0336244280
  C         6.0042682400        4.8730459800       26.8257244280
  C         6.4268021600        6.2342238400        3.9148615900
  C         5.0550978400        8.3863761600       19.7069615900
  C         1.2277978400       13.5445238400       11.8772384100
  C         2.5995021600        1.0760761600       27.6693384100
  C         0.4860671000       11.7871277200        4.2878709920
  C         3.3412329000        2.8334722800       20.0799709920
  C         7.1685329000        4.4768277200       11.5042290080
  C         4.3133671000       10.1437722800       27.2963290080
  C         5.7554937400        9.6510580600        2.4300883480
  C         5.7264062600        4.9695419400       18.2221883480
  C         1.8991062600        2.3407580600       13.3620116520
  C         1.9281937400       12.2798419400       29.1541116520
  C         5.6016362800        8.4740997600        3.1401011640
  C         5.8802637200        6.1465002400       18.9322011640
  C         2.0529637200        1.1637997600       12.6519988360
  C         1.7743362800       13.4568002400       28.4440988360
  C         3.2187593000        3.4182962800        2.7007649420
  C         0.6085407000       11.2023037200       18.4928649420
  C         4.4358407000       10.7285962800       13.0913350580
  C         7.0460593000        3.8920037200       28.8834350580
  C         6.9075110400        9.8791394200        1.6976507500
  C         4.5743889600        4.7414605800       17.4897507500
  C         0.7470889600        2.5688394200       14.0944492500
  C         3.0802110400       12.0517605800       29.8865492500
  C         2.9585029000        2.2851997800        3.4537322700
  C         0.8687971000       12.3354002200       19.2458322700
  C         4.6960971000        9.5954997800       12.3383677300
  C         6.7858029000        5.0251002200       28.1304677300
  C         0.0987443400        7.7240629800        2.3669199480
  C         3.7285556600        6.8965370200       18.1590199480
  C         7.5558556600        0.4137629800       13.4251800520
  C         3.9260443400       14.2068370200       29.2172800520
  C         6.3602071400       13.3763869400        3.9126506960
  C         5.1216928600        1.2442130600       19.7047506960
  C         1.2943928600        6.0660869400       11.8794493040
  C         2.5329071400        8.5545130600       27.6715493040
  C         3.3565421000        1.0424487800        2.9891286880
  C         0.4707579000       13.5781512200       18.7812286880
  C         4.2980579000        8.3527487800       12.8029713120
  C         7.1838421000        6.2678512200       28.5950713120
  C         6.5959688200        7.5076781000        3.1069377540
  C         4.8859311800        7.1129219000       18.8990377540
  C         1.0586311800        0.1973781000       12.6851622460
  C         2.7686688200       14.4232219000       28.4772622460
  C         0.2342307600        8.9024833400        1.6692249700
  C         3.5930692400        5.7181166600       17.4613249700
  C         7.4203692400        1.5921833400       14.1228750300
  C         4.0615307600       13.0284166600       29.9149750300
  C         3.8648075400        3.2808626400        1.4705603520
  C         7.6170924600       11.3397373600       17.2626603520
  C         3.7897924600       10.5911626400       14.3215396480
  C         0.0375075400        4.0294373600       30.1136396480
  C         1.0915459600       12.2213595400        3.1299942200
  C         2.7357540400        2.3992404600       18.9220942200
  C         6.5630540400        4.9110595400       12.6621057800
  C         4.9188459600        9.7095404600       28.4542057800
  C         4.2643776600        2.0615046000        1.0148003460
  C         7.2175223400       12.5590954000       16.8069003460
  C         3.3902223400        9.3718046000       14.7772996540
  C         0.4370776600        5.2487954000       30.5693996540
  C         6.9281784600       12.3617173000        4.6744616000
  C         4.5537215400        2.2588827000       20.4665616000
  C         0.7264215400        5.0514173000       11.1176384000
  C         3.1008784600        9.5691827000       26.9097384000
  C         6.9350676000        4.9563834000        3.2610686500
  C         4.5468324000        9.6642166000       19.0531686500
  C         0.7195324000       12.2666834000       12.5310313500
  C         3.1077676000        2.3539166000       28.3231313500
  C         4.0156031600        0.9401045800        1.7671359900
  C         7.4662968400       13.6804954200       17.5592359900
  C         3.6389968400        8.2504045800       14.0249640100
  C         0.1883031600        6.3701954200       29.8170640100
  C         1.0662857800       10.6423347400        5.0983215640
  C         2.7610142200        3.9782652600       20.8904215640
  C         6.5883142200        3.3320347400       10.6937784360
  C         4.8935857800       11.2885652600       26.4858784360
  C         0.8886990600        1.6433554400        4.7780577760
  C         2.9386009400       12.9772445600       20.5701577760
  C         6.7659009400        8.9536554400       11.0140422240
  C         4.7159990600        5.6669445600       26.8061422240
  C         2.4127299200       10.1174552000        4.6261377740
  C         1.4145700800        4.5031448000       20.4182377740
  C         5.2418700800        2.8071552000       11.1659622260
  C         6.2400299200       11.8134448000       26.9580622260
 Br         1.2639275520       13.6812264500        0.7055910280
 Br         2.5633724480        0.9393735500       16.4976910280
 Br         6.3906724480        6.3709264500       15.0865089720
 Br         5.0912275520        8.2496735500       30.8786089720
 Br         1.8240146340        9.1774968260        0.6740068280
 Br         2.0032853660        5.4431031740       16.4661068280
 Br         5.8305853660        1.8671968260       15.1180931720
 Br         5.6513146340       12.7534031740       30.9101931720
 Br         4.1833154460        4.8416116900        0.4330193820
 Br         7.2985845540        9.7789883100       16.2251193820
 Br         3.4712845540       12.1519116900       15.3590806180
 Br         0.3560154460        2.4686883100       31.1511806180
  N         7.1348526600        6.4023607400        5.2335019400
  N         4.3470473400        8.2182392600       21.0256019400
  N         0.5197473400       13.7126607400       10.5585980600
  N         3.3075526600        0.9079392600       26.3506980600
  N         3.0136160200        2.0088704400        5.9251959200
  N         0.8136839800       12.6117295600       21.7172959200
  N         4.6409839800        9.3191704400        9.8669040800
  N         6.8409160200        5.3014295600       25.6590040800
  N         1.2369833600       11.0721803800        6.5275066140
  N         2.5903166400        3.5484196200       22.3196066140
  N         6.4176166400        3.7618803800        9.2645933860
  N         5.0642833600       10.8587196200       25.0566933860
 Cl         2.6063913000        6.5098221500        4.5970803100
 Cl         1.2209087000        8.1107778500       20.3891803100
 Cl         5.0482087000       13.8201221500       11.1950196900
 Cl         6.4336913000        0.8004778500       26.9871196900
 Cl         5.0100887920        4.4067950460        6.4975016240
 Cl         6.4718112080       10.2138049540       22.2896016240
 Cl         2.6445112080       11.7170950460        9.2945983760
 Cl         1.1827887920        2.9035049540       25.0866983760
 Cl         1.3309818480        4.4696636260        7.4226028420
 Cl         2.4963181520       10.1509363740       23.2147028420
 Cl         6.3236181520       11.7799636260        8.3694971580
 Cl         5.1582818480        2.8406363740       24.1615971580
 Cl         4.1651740440        6.0890412820        9.7074038700
 Cl         7.3167259560        8.5315587180       25.4995038700
 Cl         3.4894259560       13.3993412820        6.0846961300
 Cl         0.3378740440        1.2212587180       21.8767961300
 Cl         5.0887780800        8.2618086480        6.8057634160
 Cl         6.3931219200        6.3587913520       22.5978634160
 Cl         2.5658219200        0.9515086480        8.9863365840
 Cl         1.2614780800       13.6690913520       24.7784365840
 Cl         1.4781032600        8.1775939920        7.8925757380
 Cl         2.3491967400        6.4430060080       23.6846757380
 Cl         6.1764967400        0.8672939920        7.8995242620
 Cl         5.3054032600       13.7533060080       23.6916242620
     280
 i =        6, E =     -1636.7535975641
 Eu         3.2464689520        6.3516272580        7.1879322360
 Eu         0.5808310480        8.2689727420       22.9800322360
 Eu         4.4081310480       13.6619272580        8.6041677640
 Eu         7.0737689520        0.9586727420       24.3962677640
  H         0.5144841760        6.5424038472        5.0964613534
  H         3.3130243701        8.0783441881       20.8882412852
  H         7.1402575297       13.8526955087       10.6959221306
  H         4.3416300285        0.7679296582       26.4878404342
  H         6.9985441359        5.5594248692        5.8199596292
  H         4.4832669366        9.0611772001       21.6121449182
  H         0.6566963172       12.8697530407        9.9722558209
  H         3.1709604903        1.7507950873       25.7641273445
  H         6.7210346662        7.1919654707        5.7783104186
  H         4.7607599781        7.4284694415       21.5703273221
  H         0.9336442725       14.5026439066       10.0143852934
  H         2.8938373589        0.1180011294       25.8061490390
  H         3.3139143333        1.0137919629        5.8522119468
  H         0.5137179955       13.6069669281       21.6439284708
  H         4.3409859890        8.3239078597        9.9398557220
  H         7.1406507039        6.2967709785       25.7319453324
  H         2.4802965006        2.0788286253        6.8133248382
  H         1.3464968630       12.5423311027       22.6056744819
  H         5.1744782284        9.3888902922        8.9789376861
  H         6.3073878091        5.2315040339       24.7709505573
  H         3.8451869224        2.6304161112        6.0453729405
  H        -0.0181185271       11.9904689089       21.8370115943
  H         3.8092727812        9.9405066908        9.7462021937
  H         7.6726446552        4.6801878038       25.5384434545
  H         6.5162783923       14.5751507172        2.1357986101
  H         4.9654378282        0.0452431160       17.9279440278
  H         1.1383446417        7.2647895330       13.6563438799
  H         2.6887872535        7.3559422945       29.4484101206
  H         1.9470821811       11.8313595244        6.5910880223
  H         1.8797741241        2.7896821750       22.3832464224
  H         5.7067946954        4.5203078854        9.2003705167
  H         5.7744270291       10.0997435916       24.9927877141
  H         1.5567105843       10.2592430661        7.1000481382
  H         2.2716333702        4.3616721497       22.8922480561
  H         6.0993366064        2.9483298342        8.6918233869
  H         5.3836998213       11.6717676120       24.4839991941
  H         0.3573464278       11.4082576276        6.9767875942
  H         3.4696604455        3.2118021705       22.7690874100
  H         7.2968346758        4.0990085986        8.8156480632
  H         4.1847409179       10.5226272671       24.6072937856
  H         1.9755906977        3.5011878713        4.9281581436
  H         1.8518679973       11.1194296038       20.7201797201
  H         5.6790971876       10.8114601574       10.8639186661
  H         5.8029052417        3.8091053288       26.6560537741
  H         5.3600992741        6.1266227197        4.1716313897
  H         6.1217462625        8.4939866955       19.9639021171
  H         2.2944653967       13.4369363482       11.6203997567
  H         1.5328517908        1.1836545144       27.4124040434
  H         4.9746128659       10.4092737562        2.4414947214
  H         6.5072823533        4.2113175784       18.2336197627
  H         2.6800057864        3.0989543854       13.3506306070
  H         1.1472522447       11.5216816961       29.1427924931
  H         4.6973592310        8.2881887402        3.7179124967
  H         6.7843939072        6.3321725004       19.5103408449
  H         2.9570395885        0.9781573478       12.0738405774
  H         0.8701524455       13.6425191354       27.8660809884
  H         2.9331026716        4.4031853783        3.0664586604
  H         0.8945568866       10.2174402999       18.8584333212
  H         4.7216695380       11.7135234576       12.7258625069
  H         6.7601680240        2.9071511876       28.5178277345
  H         7.0332600191       10.7983070471        1.1336043117
  H         4.4486567367        3.8223012167       16.9256854273
  H         0.6213678923        3.4879832730       14.6585395069
  H         3.2059107235       11.1326457974       30.4506920049
  H         0.8945043664        6.9849525619        2.3431121465
  H         2.9325888992        7.6354712111       18.1358152170
  H         6.7598723133       14.2954690326       13.4484451885
  H         4.7219641723        0.3251886443       29.2406737527
  H         5.4217444876       13.8218113589        4.2365999618
  H         6.0594209909        0.7979956911       20.0291794360
  H         2.2316610774        6.5125620259       11.5544748985
  H         1.5948168681        8.1085890556       27.3475199619
  H         3.1417864752        0.1415312943        3.5633261782
  H         0.6858956614       14.4789922235       19.3553354175
  H         4.5133965695        7.4520324935       12.2288167618
  H         6.9688407467        7.1686808771       28.0208287821
  H         2.0208938425       11.7786785102        2.7851484102
  H         1.8064193289        2.8419436989       18.5772305013
  H         5.6336930852        4.4683921408       13.0069267590
  H         5.8481879957       10.1522363382       28.7990582148
  H         4.7812615781        1.9769277261        0.0607223759
  H         6.7006296689       12.6436952738       15.8528290163
  H         2.8734011598        9.2872047645       15.7314076984
  H         0.9539014313        5.3333658369       31.5235073066
  H         6.4077709625       12.0246497072        5.5712061736
  H         5.0741642736        2.5959798921       21.3632961753
  H         1.2468893423        4.7144167415       10.2209061455
  H         2.5804356519        9.9062762772       26.0129923426
  H         0.3712201938        4.9726817462        3.1389151556
  H         3.4560310158        9.6476983922       18.9312422125
  H         7.2833541455       12.2831157712       12.6530526883
  H         4.1985444174        2.3375472220       28.4451646188
  H         6.4744709179        4.8314444987        2.2725837287
  H         5.0073309299        9.7891111340       18.0646334370
  H         1.1800033078       12.1417697229       13.5195736323
  H         2.6472828634        2.4788339332       29.3116726020
  H         6.6671284333        4.0893896438        3.8794014659
  H         4.8147105477       10.5312788965       19.6714415753
  H         0.9874785942       11.3996904298       11.9126966580
  H         2.8398141055        3.2209171181       27.7048059200
  H         4.3144729058       -0.0356306405        1.3907406208
  H         7.1674445354       14.6561106364       17.1826929364
  H         3.3402599785        7.2748673991       14.4017202334
  H         0.4871102517        7.3457622532       30.1936525123
  H         0.3300428641        9.8263368245        5.1221984110
  H         3.4973090710        4.7942275736       20.9143594991
  H         7.3246010352        2.5160709337       10.6698845225
  H         4.1573220368       12.1045746262       26.4619868867
  H         1.0786049666        0.5641722975        4.7123208026
  H         2.7487604643       14.0564502367       20.5046320447
  H         6.5760713112        7.8744676301       11.0797771537
  H         4.9059677445        6.7461527429       26.8715048603
  H         0.2674870416        1.9212913002        3.9170465176
  H         3.5597423267       12.6994265386       19.7090248218
  H         7.3870747144        9.2316027123       11.8750741889
  H         4.0947954870        5.3892183720       27.6672132477
  H         0.3161120498        1.8319589530        5.6974457275
  H         3.5111812694       12.7882749546       21.4894761705
  H         7.3385965287        9.1423605238       10.0947481171
  H         4.1433953025        5.4780358552       25.8868219896
  H         3.1631142201       10.9185937548        4.6163729067
  H         0.6641312829        3.7020500473       20.4087831182
  H         4.4915026511        3.6083265020       11.1754778186
  H         6.9904742481       11.0123551360       26.9676931492
  H         2.3275402290        9.6873668482        3.6208452486
  H         1.4997777278        4.9329387718       19.4128117348
  H         5.3270556347        2.3772085812       12.1713156409
  H         6.1548126026       12.2434192057       27.9634098649
  H         2.7692234616        9.3232224479        5.2919422813
  H         1.0581435754        5.2976477818       21.0837082682
  H         4.8854898685        2.0128488109       10.5002186680
  H         6.5964345935       12.6078058745       26.2923205654
  C         6.9672169200       13.7959981600        2.7446669800
  C         4.5146830800        0.8246018400       18.5367669800
  C         0.6873830800        6.4856981600       13.0474330200
  C         3.1399169200        8.1349018400       28.8395330200
  C         0.4906598600       13.2170224000        2.3659724220
  C         3.3366401400        1.4035776000       18.1580724220
  C         7.1639401400        5.9067224000       13.4261275780
  C         4.3179598600        8.7138776000       29.2182275780
  C         2.1769682400        2.4372540200        4.7584755720
  C         1.6503317600       12.1833459800       20.5505755720
  C         5.4776317600        9.7475540200       11.0336244280
  C         6.0042682400        4.8730459800       26.8257244280
  C         6.4268021600        6.2342238400        3.9148615900
  C         5.0550978400        8.3863761600       19.7069615900
  C         1.2277978400       13.5445238400       11.8772384100
  C         2.5995021600        1.0760761600       27.6693384100
  C         0.4860671000       11.7871277200        4.2878709920
  C         3.3412329000        2.8334722800       20.0799709920
  C         7.1685329000        4.4768277200       11.5042290080
  C         4.3133671000       10.1437722800       27.2963290080
  C         5.7554937400        9.6510580600        2.4300883480
  C         5.7264062600        4.9695419400       18.2221883480
  C         1.8991062600        2.3407580600       13.3620116520
  C         1.9281937400       12.2798419400       29.1541116520
  C         5.6016362800        8.4740997600        3.1401011640
  C         5.8802637200        6.1465002400       18.9322011640
  C         2.0529637200        1.1637997600       12.6519988360
  C         1.7743362800       13.4568002400       28.4440988360
  C         3.2187593000        3.4182962800        2.7007649420
  C         0.6085407000       11.2023037200       18.4928649420
  C         4.4358407000       10.7285962800       13.0913350580
  C         7.0460593000        3.8920037200       28.8834350580
  C         6.9075110400        9.8791394200        1.6976507500
  C         4.5743889600        4.7414605800       17.4897507500
  C         0.7470889600        2.5688394200       14.0944492500
  C         3.0802110400       12.0517605800       29.8865492500
  C         2.9585029000        2.2851997800        3.4537322700
  C         0.8687971000       12.3354002200       19.2458322700
  C         4.6960971000        9.5954997800       12.3383677300
  C         6.7858029000        5.0251002200       28.1304677300
  C         0.0987443400        7.7240629800        2.3669199480
  C         3.7285556600        6.8965370200       18.1590199480
  C         7.5558556600        0.4137629800       13.4251800520
  C         3.9260443400       14.2068370200       29.2172800520
  C         6.3602071400       13.3763869400        3.9126506960
  C         5.1216928600        1.2442130600       19.7047506960
  C         1.2943928600        6.0660869400       11.8794493040
  C         2.5329071400        8.5545130600       27.6715493040
  C         3.3565421000        1.0424487800        2.9891286880
  C         0.4707579000       13.5781512200       18.7812286880
  C         4.2980579000        8.3527487800       12.8029713120
  C         7.1838421000        6.2678512200       28.5950713120
  C         6.5959688200        7.5076781000        3.1069377540
  C         4.8859311800        7.1129219000       18.8990377540
  C         1.0586311800        0.1973781000       12.6851622460
  C         2.7686688200       14.4232219000       28.4772622460
  C         0.2342307600        8.9024833400        1.6692249700
  C         3.5930692400        5.7181166600       17.4613249700
  C         7.4203692400        1.5921833400       14.1228750300
  C         4.0615307600       13.0284166600       29.9149750300
  C         3.8648075400        3.2808626400        1.4705603520
  C         7.6170924600       11.3397373600       17.2626603520
  C         3.7897924600       10.5911626400       14.3215396480
  C         0.0375075400        4.0294373600       30.1136396480
  C         1.0915459600       12.2213595400        3.1299942200
  C         2.7357540400        2.3992404600       18.9220942200
  C         6.5630540400        4.9110595400       12.6621057800
  C         4.9188459600        9.7095404600       28.4542057800
  C         4.2643776600        2.0615046000        1.0148003460
  C         7.2175223400       12.5590954000       16.8069003460
  C         3.3902223400        9.3718046000       14.7772996540
  C         0.4370776600        5.2487954000       30.5693996540
  C         6.9281784600       12.3617173000        4.6744616000
  C         4.5537215400        2.2588827000       20.4665616000
  C         0.7264215400        5.0514173000       11.1176384000
  C         3.1008784600        9.5691827000       26.9097384000
  C         6.9350676000        4.9563834000        3.2610686500
  C         4.5468324000        9.6642166000       19.0531686500
  C         0.7195324000       12.2666834000       12.5310313500
  C         3.1077676000        2.3539166000       28.3231313500
  C         4.0156031600        0.9401045800        1.7671359900
  C         7.4662968400       13.6804954200       17.5592359900
  C         3.6389968400        8.2504045800       14.0249640100
  C         0.1883031600        6.3701954200       29.8170640100
  C         1.0662857800       10.6423347400        5.0983215640
  C         2.7610142200        3.9782652600       20.8904215640
  C         6.5883142200        3.3320347400       10.6937784360
  C         4.8935857800       11.2885652600       26.4858784360
  C         0.8886990600        1.6433554400        4.7780577760
  C         2.9386009400       12.9772445600       20.5701577760
  C         6.7659009400        8.9536554400       11.0140422240
  C         4.7159990600        5.6669445600       26.8061422240
  C         2.4127299200       10.1174552000        4.6261377740
  C         1.4145700800        4.5031448000       20.4182377740
  C         5.2418700800        2.8071552000       11.1659622260
  C         6.2400299200       11.8134448000       26.9580622260
 Br         1.2639275520       13.6812264500        0.7055910280
 Br         2.5633724480        0.9393735500       16.4976910280
 Br         6.3906724480        6.3709264500       15.0865089720
 Br         5.0912275520        8.2496735500       30.8786089720
 Br         1.8240146340        9.1774968260        0.6740068280
 Br         2.0032853660        5.4431031740       16.4661068280
 Br         5.8305853660        1.8671968260       15.1180931720
 Br         5.6513146340       12.7534031740       30.9101931720
 Br         4.1833154460        4.8416116900        0.4330193820
 Br         7.2985845540        9.7789883100       16.2251193820
 Br         3.4712845540       12.1519116900       15.3590806180
 Br         0.3560154460        2.4686883100       31.1511806180
  N         7.1348526600        6.4023607400        5.2335019400
  N         4.3470473400        8.2182392600       21.0256019400
  N         0.5197473400       13.7126607400       10.5585980600
  N         3.3075526600        0.9079392600       26.3506980600
  N         3.0136160200        2.0088704400        5.9251959200
  N         0.8136839800       12.6117295600       21.7172959200
  N         4.6409839800        9.3191704400        9.8669040800
  N         6.8409160200        5.3014295600       25.6590040800
  N         1.2369833600       11.0721803800        6.5275066140
  N         2.5903166400        3.5484196200       22.3196066140
  N         6.4176166400        3.7618803800        9.2645933860
  N         5.0642833600       10.8587196200       25.0566933860
 Cl         2.6063913000        6.5098221500        4.5970803100
 Cl         1.2209087000        8.1107778500       20.3891803100
 Cl         5.0482087000       13.8201221500       11.1950196900
 Cl         6.4336913000        0.8004778500       26.9871196900
 Cl         5.0100887920        4.4067950460        6.4975016240
 Cl         6.4718112080       10.2138049540       22.2896016240
 Cl         2.6445112080       11.7170950460        9.2945983760
 Cl         1.1827887920        2.9035049540       25.0866983760
 Cl         1.3309818480        4.4696636260        7.4226028420
 Cl         2.4963181520       10.1509363740       23.2147028420
 Cl         6.3236181520       11.7799636260        8.3694971580
 Cl         5.1582818480        2.8406363740       24.1615971580
 Cl         4.1651740440        6.0890412820        9.7074038700
 Cl         7.3167259560        8.5315587180       25.4995038700
 Cl         3.4894259560       13.3993412820        6.0846961300
 Cl         0.3378740440        1.2212587180       21.8767961300
 Cl         5.0887780800        8.2618086480        6.8057634160
 Cl         6.3931219200        6.3587913520       22.5978634160
 Cl         2.5658219200        0.9515086480        8.9863365840
 Cl         1.2614780800       13.6690913520       24.7784365840
 Cl         1.4781032600        8.1775939920        7.8925757380
 Cl         2.3491967400        6.4430060080       23.6846757380
 Cl         6.1764967400        0.8672939920        7.8995242620
 Cl         5.3054032600       13.7533060080       23.6916242620
     280
 i =        7, E =     -1636.7549395931
 Eu         3.2464689520        6.3516272580        7.1879322360
 Eu         0.5808310480        8.2689727420       22.9800322360
 Eu         4.4081310480       13.6619272580        8.6041677640
 Eu         7.0737689520        0.9586727420       24.3962677640
  H         0.5146362430        6.5442619254        5.0964428572
  H         3.3128983025        8.0764997971       20.8881380266
  H         7.1400976250       13.8544697451       10.6961123047
  H         4.3417530234        0.7661400652       26.4879892410
  H         7.0004925996        5.5585411013        5.8188012077
  H         4.4813314762        9.0620847843       21.6109839941
  H         0.6547628042       12.8688477254        9.9734151998
  H         3.1729173218        1.7516942927       25.7652786745
  H         6.7195058130        7.1905625703        5.7794183971
  H         4.7622022913        7.4298887211       21.5715249237
  H         0.9350540079       14.5012317283       10.0132119845
  H         2.8923210683        0.1194094273       25.8049815144
  H         3.3113925932        1.0129030644        5.8541485281
  H         0.5162614938       13.6078431316       21.6458287537
  H         4.3435801755        8.3230043012        9.9379717122
  H         7.1380776533        6.2976670884       25.7300335230
  H         2.4808078472        2.0820546311        6.8131843677
  H         1.3458575325       12.5390209736       22.6056336470
  H         5.1738597259        9.3922503592        8.9789865412
  H         6.3078690758        5.2280903028       24.7711198708
  H         3.8467364031        2.6287045094        6.0441075507
  H        -0.0196324819       11.9921683122       21.8357275742
  H         3.8077420421        9.9388087779        9.7474854000
  H         7.6741408883        4.6818810546       25.5396788250
  H         6.5160487344       14.5747238948        2.1357342414
  H         4.9655632689        0.0455348707       17.9279769887
  H         1.1385628518        7.2643773758       13.6563904813
  H         2.6886242736        7.3562824905       29.4483985691
  H         1.9484617054       11.8299649998        6.5914287981
  H         1.8782098671        2.7913112955       22.3836511758
  H         5.7049750642        4.5184484330        9.1998776085
  H         5.7759337563       10.1012990078       24.9923688139
  H         1.5548525393       10.2582870568        7.1001016431
  H         2.2734476453        4.3626282325       22.8922266684
  H         6.1012556309        2.9473586623        8.6917704189
  H         5.3820409621       11.6726500956       24.4839984671
  H         0.3581052146       11.4097025588        6.9767730919
  H         3.4689158661        3.2102812869       22.7691656905
  H         7.2960338919        4.1008711902        8.8157663982
  H         4.1854888839       10.5211123729       24.6073094874
  H         1.9757130063        3.5010942822        4.9282086461
  H         1.8517462954       11.1195192884       20.7201901014
  H         5.6789804875       10.8113735716       10.8639088426
  H         5.8030113854        3.8092026098       26.6560013887
  H         5.3601696299        6.1265003929        4.1715367691
  H         6.1216738053        8.4941135425       19.9638044249
  H         2.2944049789       13.4368120672       11.6205156750
  H         1.5329226627        1.1837562676       27.4125116196
  H         4.9742233083       10.4086426420        2.4406018294
  H         6.5076534804        4.2119336649       18.2327619713
  H         2.6803471005        3.0983702930       13.3514302420
  H         1.1469385488       11.5222413702       29.1435443881
  H         4.6969748172        8.2877207463        3.7168176445
  H         6.7847606129        6.3326037808       19.5092817482
  H         2.9573924770        0.9777377241       12.0748608055
  H         0.8698337551       13.6429156407       27.8670595129
  H         2.9338286871        4.4030999141        3.0667635044
  H         0.8938634857       10.2175296360       18.8587110262
  H         4.7208794510       11.7134488494       12.7255247127
  H         6.7609341142        2.9072288483       28.5175345344
  H         7.0324280254       10.7973308160        1.1322284738
  H         4.4494755381        3.8232651227       16.9243341261
  H         0.6221756356        3.4870338626       14.6598658708
  H         3.2051320773       11.1335701527       30.4519697199
  H         0.8947148073        6.9854212087        2.3438544877
  H         2.9323969521        7.6350151336       18.1365426014
  H         6.7596806805       14.2959209923       13.4476996688
  H         4.7221523760        0.3247362030       29.2399619128
  H         5.4211426554       13.8207938958        4.2356991690
  H         6.0599050053        0.7988713476       20.0283637745
  H         2.2321596202        6.5116764224       11.5552813269
  H         1.5943338223        8.1094732218       27.3483472314
  H         3.1400699673        0.1414912078        3.5622827715
  H         0.6877855189       14.4790661777       19.3541631568
  H         4.5151733423        7.4519966044       12.2298865113
  H         6.9670652402        7.1687184447       28.0219042180
  H         2.0194834079       11.7771286916        2.7840254187
  H         1.8078231792        2.8434839810       18.5761176045
  H         5.6350963316        4.4668499802       13.0080401678
  H         5.8467827957       10.1537789934       28.8001713635
  H         4.7808519105        1.9768854576        0.0607026729
  H         6.7009829646       12.6437313161       15.8528384598
  H         2.8738051833        9.2871634853       15.7314242609
  H         0.9535307908        5.3334000660       31.5235070514
  H         6.4074890425       12.0240600511        5.5706324561
  H         5.0743933171        2.5965561869       21.3627564522
  H         1.2470906265        4.7138903661       10.2214100808
  H         2.5801991294        9.9068573832       26.0135404537
  H         0.3709187920        4.9727279108        3.1382720172
  H         3.4563319804        9.6476298085       18.9306244177
  H         7.2836578014       12.2831929359       12.6536985040
  H         4.1982358765        2.3374922515       28.4458260596
  H         6.4737467979        4.8307256156        2.2732439561
  H         5.0080120946        9.7898314944       18.0652779336
  H         1.1807400432       12.1410487875       13.5189069269
  H         2.6465654179        2.4795522761       29.3110140219
  H         6.6677346197        4.0899049476        3.8801281602
  H         4.8141310672       10.5307294202       19.6721995504
  H         0.9868863197       11.4002343169       11.9119340254
  H         2.8404262139        3.2203860628       27.7040600911
  H         4.3126747448       -0.0356498871        1.3899480855
  H         7.1692717753       14.6561368337       17.1818930548
  H         3.3420594548        7.2748519932       14.4025213763
  H         0.4853631998        7.3457697093       30.1944235491
  H         0.3301661299        9.8263537468        5.1221224927
  H         3.4971917410        4.7942000388       20.9142789559
  H         7.3244964925        2.5161066565       10.6699687997
  H         4.1574205737       12.1045346268       26.4620650912
  H         1.0788313805        0.5644792723        4.7109423818
  H         2.7485791028       14.0561498797       20.5032918168
  H         6.5758575953        7.8747721076       11.0811728301
  H         4.9061758823        6.7458479976       26.8728459172
  H         0.2674827611        1.9220356162        3.9175001654
  H         3.5597396028       12.6987064428       19.7094713237
  H         7.3870577853        9.2323374205       11.8746387374
  H         4.0948077507        5.3885242127       27.6667813978
  H         0.3164681804        1.8307398542        5.6976062220
  H         3.5108251985       12.7894482326       21.4896223134
  H         7.3382482802        9.1411883651       10.0946101403
  H         4.1437320615        5.4792271550       25.8866805348
  H         3.1627379486       10.9187044472        4.6157891607
  H         0.6644900419        3.7019591252       20.4083115666
  H         4.4918853631        3.6084422395       11.1759874199
  H         6.9900920241       11.0122440257       26.9682534252
  H         2.3276810252        9.6864165057        3.6215009818
  H         1.4996172558        4.9337684126       19.4134156431
  H         5.3268991139        2.3763159545       12.1706848240
  H         6.1549456624       12.2443426884       27.9627629882
  H         2.7694198855        9.3241084358        5.2926148114
  H         1.0579738440        5.2967947486       21.0843460855
  H         4.8853005608        2.0137360589       10.4995476729
  H         6.5966861520       12.6068692325       26.2916195565
  C         6.9672169200       13.7959981600        2.7446669800
  C         4.5146830800        0.8246018400       18.5367669800
  C         0.6873830800        6.4856981600       13.0474330200
  C         3.1399169200        8.1349018400       28.8395330200
  C         0.4906598600       13.2170224000        2.3659724220
  C         3.3366401400        1.4035776000       18.1580724220
  C         7.1639401400        5.9067224000       13.4261275780
  C         4.3179598600        8.7138776000       29.2182275780
  C         2.1769682400        2.4372540200        4.7584755720
  C         1.6503317600       12.1833459800       20.5505755720
  C         5.4776317600        9.7475540200       11.0336244280
  C         6.0042682400        4.8730459800       26.8257244280
  C         6.4268021600        6.2342238400        3.9148615900
  C         5.0550978400        8.3863761600       19.7069615900
  C         1.2277978400       13.5445238400       11.8772384100
  C         2.5995021600        1.0760761600       27.6693384100
  C         0.4860671000       11.7871277200        4.2878709920
  C         3.3412329000        2.8334722800       20.0799709920
  C         7.1685329000        4.4768277200       11.5042290080
  C         4.3133671000       10.1437722800       27.2963290080
  C         5.7554937400        9.6510580600        2.4300883480
  C         5.7264062600        4.9695419400       18.2221883480
  C         1.8991062600        2.3407580600       13.3620116520
  C         1.9281937400       12.2798419400       29.1541116520
  C         5.6016362800        8.4740997600        3.1401011640
  C         5.8802637200        6.1465002400       18.9322011640
  C         2.0529637200        1.1637997600       12.6519988360
  C         1.7743362800       13.4568002400       28.4440988360
  C         3.2187593000        3.4182962800        2.7007649420
  C         0.6085407000       11.2023037200       18.4928649420
  C         4.4358407000       10.7285962800       13.0913350580
  C         7.0460593000        3.8920037200       28.8834350580
  C         6.9075110400        9.8791394200        1.6976507500
  C         4.5743889600        4.7414605800       17.4897507500
  C         0.7470889600        2.5688394200       14.0944492500
  C         3.0802110400       12.0517605800       29.8865492500
  C         2.9585029000        2.2851997800        3.4537322700
  C         0.8687971000       12.3354002200       19.2458322700
  C         4.6960971000        9.5954997800       12.3383677300
  C         6.7858029000        5.0251002200       28.1304677300
  C         0.0987443400        7.7240629800        2.3669199480
  C         3.7285556600        6.8965370200       18.1590199480
  C         7.5558556600        0.4137629800       13.4251800520
  C         3.9260443400       14.2068370200       29.2172800520
  C         6.3602071400       13.3763869400        3.9126506960
  C         5.1216928600        1.2442130600       19.7047506960
  C         1.2943928600        6.0660869400       11.8794493040
  C         2.5329071400        8.5545130600       27.6715493040
  C         3.3565421000        1.0424487800        2.9891286880
  C         0.4707579000       13.5781512200       18.7812286880
  C         4.2980579000        8.3527487800       12.8029713120
  C         7.1838421000        6.2678512200       28.5950713120
  C         6.5959688200        7.5076781000        3.1069377540
  C         4.8859311800        7.1129219000       18.8990377540
  C         1.0586311800        0.1973781000       12.6851622460
  C         2.7686688200       14.4232219000       28.4772622460
  C         0.2342307600        8.9024833400        1.6692249700
  C         3.5930692400        5.7181166600       17.4613249700
  C         7.4203692400        1.5921833400       14.1228750300
  C         4.0615307600       13.0284166600       29.9149750300
  C         3.8648075400        3.2808626400        1.4705603520
  C         7.6170924600       11.3397373600       17.2626603520
  C         3.7897924600       10.5911626400       14.3215396480
  C         0.0375075400        4.0294373600       30.1136396480
  C         1.0915459600       12.2213595400        3.1299942200
  C         2.7357540400        2.3992404600       18.9220942200
  C         6.5630540400        4.9110595400       12.6621057800
  C         4.9188459600        9.7095404600       28.4542057800
  C         4.2643776600        2.0615046000        1.0148003460
  C         7.2175223400       12.5590954000       16.8069003460
  C         3.3902223400        9.3718046000       14.7772996540
  C         0.4370776600        5.2487954000       30.5693996540
  C         6.9281784600       12.3617173000        4.6744616000
  C         4.5537215400        2.2588827000       20.4665616000
  C         0.7264215400        5.0514173000       11.1176384000
  C         3.1008784600        9.5691827000       26.9097384000
  C         6.9350676000        4.9563834000        3.2610686500
  C         4.5468324000        9.6642166000       19.0531686500
  C         0.7195324000       12.2666834000       12.5310313500
  C         3.1077676000        2.3539166000       28.3231313500
  C         4.0156031600        0.9401045800        1.7671359900
  C         7.4662968400       13.6804954200       17.5592359900
  C         3.6389968400        8.2504045800       14.0249640100
  C         0.1883031600        6.3701954200       29.8170640100
  C         1.0662857800       10.6423347400        5.0983215640
  C         2.7610142200        3.9782652600       20.8904215640
  C         6.5883142200        3.3320347400       10.6937784360
  C         4.8935857800       11.2885652600       26.4858784360
  C         0.8886990600        1.6433554400        4.7780577760
  C         2.9386009400       12.9772445600       20.5701577760
  C         6.7659009400        8.9536554400       11.0140422240
  C         4.7159990600        5.6669445600       26.8061422240
  C         2.4127299200       10.1174552000        4.6261377740
  C         1.4145700800        4.5031448000       20.4182377740
  C         5.2418700800        2.8071552000       11.1659622260
  C         6.2400299200       11.8134448000       26.9580622260
 Br         1.2639275520       13.6812264500        0.7055910280
 Br         2.5633724480        0.9393735500       16.4976910280
 Br         6.3906724480        6.3709264500       15.0865089720
 Br         5.0912275520        8.2496735500       30.8786089720
 Br         1.8240146340        9.1774968260        0.6740068280
 Br         2.0032853660        5.4431031740       16.4661068280
 Br         5.8305853660        1.8671968260       15.1180931720
 Br         5.6513146340       12.7534031740       30.9101931720
 Br         4.1833154460        4.8416116900        0.4330193820
 Br         7.2985845540        9.7789883100       16.2251193820
 Br         3.4712845540       12.1519116900       15.3590806180
 Br         0.3560154460        2.4686883100       31.1511806180
  N         7.1348526600        6.4023607400        5.2335019400
  N         4.3470473400        8.2182392600       21.0256019400
  N         0.5197473400       13.7126607400       10.5585980600
  N         3.3075526600        0.9079392600       26.3506980600
  N         3.0136160200        2.0088704400        5.9251959200
  N         0.8136839800       12.6117295600       21.7172959200
  N         4.6409839800        9.3191704400        9.8669040800
  N         6.8409160200        5.3014295600       25.6590040800
  N         1.2369833600       11.0721803800        6.5275066140
  N         2.5903166400        3.5484196200       22.3196066140
  N         6.4176166400        3.7618803800        9.2645933860
  N         5.0642833600       10.8587196200       25.0566933860
 Cl         2.6063913000        6.5098221500        4.5970803100
 Cl         1.2209087000        8.1107778500       20.3891803100
 Cl         5.0482087000       13.8201221500       11.1950196900
 Cl         6.4336913000        0.8004778500       26.9871196900
 Cl         5.0100887920        4.4067950460        6.4975016240
 Cl         6.4718112080       10.2138049540       22.2896016240
 Cl         2.6445112080       11.7170950460        9.2945983760
 Cl         1.1827887920        2.9035049540       25.0866983760
 Cl         1.3309818480        4.4696636260        7.4226028420
 Cl         2.4963181520       10.1509363740       23.2147028420
 Cl         6.3236181520       11.7799636260        8.3694971580
 Cl         5.1582818480        2.8406363740       24.1615971580
 Cl         4.1651740440        6.0890412820        9.7074038700
 Cl         7.3167259560        8.5315587180       25.4995038700
 Cl         3.4894259560       13.3993412820        6.0846961300
 Cl         0.3378740440        1.2212587180       21.8767961300
 Cl         5.0887780800        8.2618086480        6.8057634160
 Cl         6.3931219200        6.3587913520       22.5978634160
 Cl         2.5658219200        0.9515086480        8.9863365840
 Cl         1.2614780800       13.6690913520       24.7784365840
 Cl         1.4781032600        8.1775939920        7.8925757380
 Cl         2.3491967400        6.4430060080       23.6846757380
 Cl         6.1764967400        0.8672939920        7.8995242620
 Cl         5.3054032600       13.7533060080       23.6916242620
     280
 i =        8, E =     -1636.7557323896
 Eu         3.2464689520        6.3516272580        7.1879322360
 Eu         0.5808310480        8.2689727420       22.9800322360
 Eu         4.4081310480       13.6619272580        8.6041677640
 Eu         7.0737689520        0.9586727420       24.3962677640
  H         0.5142280748        6.5469228020        5.0965215770
  H         3.3133159619        8.0738788584       20.8881271545
  H         7.1404940671       13.8570521916       10.6961168656
  H         4.3413555410        0.7634905293       26.4879830517
  H         7.0035817947        5.5576146773        5.8178611418
  H         4.4782351730        9.0630591896       21.6100009501
  H         0.6516892460       12.8678841094        9.9743732733
  H         3.1759841168        1.7526048512       25.7661784379
  H         6.7178497799        7.1887322988        5.7807077809
  H         4.7637672545        7.4317295984       21.5728754724
  H         0.9365375942       14.4994322971       10.0118708243
  H         2.8908590949        0.1212177566       25.8036452725
  H         3.3080681265        1.0118185006        5.8567237955
  H         0.5196465566       13.6089695034       21.6483625652
  H         4.3469859418        8.3218844327        9.9354010692
  H         7.1346895551        6.2987840002       25.7273454017
  H         2.4820929271        2.0862286568        6.8133999754
  H         1.3446129997       12.5345623338       22.6058221087
  H         5.1725700702        9.3965740853        8.9787415566
  H         6.3089483647        5.2236697908       24.7710340515
  H         3.8487999153        2.6259900651        6.0422086908
  H        -0.0216445549       11.9948359910       21.8337921342
  H         3.8057016757        9.9361285979        9.7494759344
  H         7.6760823801        4.6844612896       25.5415218391
  H         6.5157641517       14.5742707278        2.1355625972
  H         4.9657824379        0.0458792877       17.9279101488
  H         1.1388432435        7.2639382760       13.6565342431
  H         2.6883691738        7.3566791402       29.4484919822
  H         1.9500752148       11.8281232139        6.5921552316
  H         1.8764381360        2.7932955133       22.3842090019
  H         5.7029548461        4.5161991688        9.1991289652
  H         5.7776061866       10.1031957940       24.9916518643
  H         1.5524404308       10.2577393670        7.1006355563
  H         2.2758819361        4.3631903428       22.8927027893
  H         6.1040023214        2.9466652589        8.6912645323
  H         5.3797193297       11.6731108731       24.4834750113
  H         0.3589564620       11.4118749474        6.9762266634
  H         3.4680620738        3.2083421306       22.7688506748
  H         7.2950449489        4.1035407069        8.8163261444
  H         4.1863813926       10.5188968770       24.6077782309
  H         1.9762382764        3.5011868545        4.9285544138
  H         1.8512165305       11.1194249616       20.7205158283
  H         5.6784434816       10.8114737153       10.8635838958
  H         5.8035734183        3.8091015147       26.6557194590
  H         5.3602744748        6.1266232293        4.1719361569
  H         6.1215677557        8.4939933365       19.9641861738
  H         2.2943042737       13.4369255522       11.6201270226
  H         1.5330183474        1.1836066826       27.4121257865
  H         4.9737923792       10.4080371719        2.4395150804
  H         6.5080629714        4.2125207249       18.2317131669
  H         2.6807286348        3.0978138219       13.3524236942
  H         1.1465863774       11.5227730766       29.1444872685
  H         4.6966317033        8.2872205755        3.7158548819
  H         6.7850813541        6.3330758579       19.5083579311
  H         2.9576976200        0.9772863814       12.0757449427
  H         0.8695445458       13.6433275938       27.8679106008
  H         2.9343681463        4.4030197477        3.0669874659
  H         0.8933487901       10.2176039367       18.8588868885
  H         4.7202852209       11.7133834750       12.7253039206
  H         6.7614973945        2.9073007002       28.5173049219
  H         7.0316649868       10.7964700321        1.1309150633
  H         4.4502250843        3.8241129816       16.9230454710
  H         0.6229108258        3.4862009022       14.6611288127
  H         3.2044189106       11.1343762188       30.4531834497
  H         0.8949918706        6.9858761584        2.3443974405
  H         2.9321295830        7.6345646411       18.1370885285
  H         6.7594093840       14.2963722577       13.4471490599
  H         4.7224264081        0.3242844018       29.2393970846
  H         5.4205699640       13.8197903550        4.2349744337
  H         6.0604719818        0.7998359311       20.0276888990
  H         2.2327009979        6.5107252332       11.5559309239
  H         1.5938338402        8.1103901782       27.3489902462
  H         3.1384978552        0.1413474827        3.5611514625
  H         0.6894618928       14.4792337747       19.3529590225
  H         4.5167703815        7.4518547474       12.2310265091
  H         6.9654672364        7.1688647867       28.0230571620
  H         2.0182374018       11.7757871484        2.7828688671
  H         1.8090560562        2.8448044706       18.5749766799
  H         5.6363323817        4.4655220388       13.0091888483
  H         5.8455432208       10.1551068660       28.8013212127
  H         4.7802933713        1.9767480378        0.0605680118
  H         6.7014991995       12.6438544581       15.8527246367
  H         2.8743643550        9.2870308561       15.7315588335
  H         0.9530069382        5.3335300046       31.5236240301
  H         6.4069693175       12.0236557864        5.5700232525
  H         5.0749351106        2.5969181741       21.3621441492
  H         1.2475492570        4.7135715439       10.2219496144
  H         2.5796973347        9.9072511980       26.0141387536
  H         0.3707106280        4.9729728836        3.1372227984
  H         3.4565379123        9.6473761193       18.9296175502
  H         7.2838693856       12.2834471513       12.6547721963
  H         4.1980289402        2.3372196047       28.4468458074
  H         6.4726489129        4.8299050873        2.2739833535
  H         5.0090781336        9.7906492413       18.0660065944
  H         1.1818453906       12.1402239680       13.5181624003
  H         2.6454325733        2.4803837794       29.3102557307
  H         6.6686312482        4.0903497300        3.8810209385
  H         4.8132713614       10.5302544248       19.6731107950
  H         0.9859984281       11.4007125637       11.9109985992
  H         2.8413577423        3.2199712663       27.7032008215
  H         4.3110400770       -0.0356759685        1.3891833202
  H         7.1709682100       14.6562025711       17.1811427670
  H         3.3436990767        7.2748327196       14.4033042597
  H         0.4837694502        7.3457904209       30.1951684671
  H         0.3299600520        9.8265236141        5.1226263277
  H         3.4974048496        4.7940188447       20.9147814264
  H         7.3247182018        2.5162887926       10.6694627635
  H         4.1571771997       12.1043307458       26.4615333576
  H         1.0788587098        0.5646394168        4.7091603594
  H         2.7485411604       14.0559910813       20.5015954958
  H         6.5758392660        7.8749290188       11.0829204030
  H         4.9062072488        6.7456877690       26.8745623232
  H         0.2671204021        1.9231791631        3.9182493944
  H         3.5601059463       12.6975766515       19.7102279450
  H         7.3874019027        9.2334850621       11.8738997042
  H         4.0944780677        5.3874385544       27.6660656086
  H         0.3169863913        1.8292681523        5.6980607993
  H         3.5102630146       12.7907848182       21.4900624400
  H         7.3377333455        9.1397617484       10.0941751242
  H         4.1442710865        5.4806089647       25.8862333552
  H         3.1623613938       10.9189402883        4.6147375611
  H         0.6648570284        3.7017313713       20.4074056547
  H         4.4922597173        3.6086788435       11.1769791033
  H         6.9896957049       11.0119918890       26.9693052109
  H         2.3275580361        9.6850650346        3.6222146494
  H         1.4997099300        4.9349842901       19.4140722419
  H         5.3269819440        2.3750300976       12.1700020317
  H         6.1548316085       12.2456961936       27.9620450760
  H         2.7699054932        9.3251043261        5.2934655211
  H         1.0575504110        5.2958750069       21.0851384595
  H         4.8848332107        2.0147273289       10.4986822315
  H         6.5972101393       12.6058443037       26.2907631275
  C         6.9672169200       13.7959981600        2.7446669800
  C         4.5146830800        0.8246018400       18.5367669800
  C         0.6873830800        6.4856981600       13.0474330200
  C         3.1399169200        8.1349018400       28.8395330200
  C         0.4906598600       13.2170224000        2.3659724220
  C         3.3366401400        1.4035776000       18.1580724220
  C         7.1639401400        5.9067224000       13.4261275780
  C         4.3179598600        8.7138776000       29.2182275780
  C         2.1769682400        2.4372540200        4.7584755720
  C         1.6503317600       12.1833459800       20.5505755720
  C         5.4776317600        9.7475540200       11.0336244280
  C         6.0042682400        4.8730459800       26.8257244280
  C         6.4268021600        6.2342238400        3.9148615900
  C         5.0550978400        8.3863761600       19.7069615900
  C         1.2277978400       13.5445238400       11.8772384100
  C         2.5995021600        1.0760761600       27.6693384100
  C         0.4860671000       11.7871277200        4.2878709920
  C         3.3412329000        2.8334722800       20.0799709920
  C         7.1685329000        4.4768277200       11.5042290080
  C         4.3133671000       10.1437722800       27.2963290080
  C         5.7554937400        9.6510580600        2.4300883480
  C         5.7264062600        4.9695419400       18.2221883480
  C         1.8991062600        2.3407580600       13.3620116520
  C         1.9281937400       12.2798419400       29.1541116520
  C         5.6016362800        8.4740997600        3.1401011640
  C         5.8802637200        6.1465002400       18.9322011640
  C         2.0529637200        1.1637997600       12.6519988360
  C         1.7743362800       13.4568002400       28.4440988360
  C         3.2187593000        3.4182962800        2.7007649420
  C         0.6085407000       11.2023037200       18.4928649420
  C         4.4358407000       10.7285962800       13.0913350580
  C         7.0460593000        3.8920037200       28.8834350580
  C         6.9075110400        9.8791394200        1.6976507500
  C         4.5743889600        4.7414605800       17.4897507500
  C         0.7470889600        2.5688394200       14.0944492500
  C         3.0802110400       12.0517605800       29.8865492500
  C         2.9585029000        2.2851997800        3.4537322700
  C         0.8687971000       12.3354002200       19.2458322700
  C         4.6960971000        9.5954997800       12.3383677300
  C         6.7858029000        5.0251002200       28.1304677300
  C         0.0987443400        7.7240629800        2.3669199480
  C         3.7285556600        6.8965370200       18.1590199480
  C         7.5558556600        0.4137629800       13.4251800520
  C         3.9260443400       14.2068370200       29.2172800520
  C         6.3602071400       13.3763869400        3.9126506960
  C         5.1216928600        1.2442130600       19.7047506960
  C         1.2943928600        6.0660869400       11.8794493040
  C         2.5329071400        8.5545130600       27.6715493040
  C         3.3565421000        1.0424487800        2.9891286880
  C         0.4707579000       13.5781512200       18.7812286880
  C         4.2980579000        8.3527487800       12.8029713120
  C         7.1838421000        6.2678512200       28.5950713120
  C         6.5959688200        7.5076781000        3.1069377540
  C         4.8859311800        7.1129219000       18.8990377540
  C         1.0586311800        0.1973781000       12.6851622460
  C         2.7686688200       14.4232219000       28.4772622460
  C         0.2342307600        8.9024833400        1.6692249700
  C         3.5930692400        5.7181166600       17.4613249700
  C         7.4203692400        1.5921833400       14.1228750300
  C         4.0615307600       13.0284166600       29.9149750300
  C         3.8648075400        3.2808626400        1.4705603520
  C         7.6170924600       11.3397373600       17.2626603520
  C         3.7897924600       10.5911626400       14.3215396480
  C         0.0375075400        4.0294373600       30.1136396480
  C         1.0915459600       12.2213595400        3.1299942200
  C         2.7357540400        2.3992404600       18.9220942200
  C         6.5630540400        4.9110595400       12.6621057800
  C         4.9188459600        9.7095404600       28.4542057800
  C         4.2643776600        2.0615046000        1.0148003460
  C         7.2175223400       12.5590954000       16.8069003460
  C         3.3902223400        9.3718046000       14.7772996540
  C         0.4370776600        5.2487954000       30.5693996540
  C         6.9281784600       12.3617173000        4.6744616000
  C         4.5537215400        2.2588827000       20.4665616000
  C         0.7264215400        5.0514173000       11.1176384000
  C         3.1008784600        9.5691827000       26.9097384000
  C         6.9350676000        4.9563834000        3.2610686500
  C         4.5468324000        9.6642166000       19.0531686500
  C         0.7195324000       12.2666834000       12.5310313500
  C         3.1077676000        2.3539166000       28.3231313500
  C         4.0156031600        0.9401045800        1.7671359900
  C         7.4662968400       13.6804954200       17.5592359900
  C         3.6389968400        8.2504045800       14.0249640100
  C         0.1883031600        6.3701954200       29.8170640100
  C         1.0662857800       10.6423347400        5.0983215640
  C         2.7610142200        3.9782652600       20.8904215640
  C         6.5883142200        3.3320347400       10.6937784360
  C         4.8935857800       11.2885652600       26.4858784360
  C         0.8886990600        1.6433554400        4.7780577760
  C         2.9386009400       12.9772445600       20.5701577760
  C         6.7659009400        8.9536554400       11.0140422240
  C         4.7159990600        5.6669445600       26.8061422240
  C         2.4127299200       10.1174552000        4.6261377740
  C         1.4145700800        4.5031448000       20.4182377740
  C         5.2418700800        2.8071552000       11.1659622260
  C         6.2400299200       11.8134448000       26.9580622260
 Br         1.2639275520       13.6812264500        0.7055910280
 Br         2.5633724480        0.9393735500       16.4976910280
 Br         6.3906724480        6.3709264500       15.0865089720
 Br         5.0912275520        8.2496735500       30.8786089720
 Br         1.8240146340        9.1774968260        0.6740068280
 Br         2.0032853660        5.4431031740       16.4661068280
 Br         5.8305853660        1.8671968260       15.1180931720
 Br         5.6513146340       12.7534031740       30.9101931720
 Br         4.1833154460        4.8416116900        0.4330193820
 Br         7.2985845540        9.7789883100       16.2251193820
 Br         3.4712845540       12.1519116900       15.3590806180
 Br         0.3560154460        2.4686883100       31.1511806180
  N         7.1348526600        6.4023607400        5.2335019400
  N         4.3470473400        8.2182392600       21.0256019400
  N         0.5197473400       13.7126607400       10.5585980600
  N         3.3075526600        0.9079392600       26.3506980600
  N         3.0136160200        2.0088704400        5.9251959200
  N         0.8136839800       12.6117295600       21.7172959200
  N         4.6409839800        9.3191704400        9.8669040800
  N         6.8409160200        5.3014295600       25.6590040800
  N         1.2369833600       11.0721803800        6.5275066140
  N         2.5903166400        3.5484196200       22.3196066140
  N         6.4176166400        3.7618803800        9.2645933860
  N         5.0642833600       10.8587196200       25.0566933860
 Cl         2.6063913000        6.5098221500        4.5970803100
 Cl         1.2209087000        8.1107778500       20.3891803100
 Cl         5.0482087000       13.8201221500       11.1950196900
 Cl         6.4336913000        0.8004778500       26.9871196900
 Cl         5.0100887920        4.4067950460        6.4975016240
 Cl         6.4718112080       10.2138049540       22.2896016240
 Cl         2.6445112080       11.7170950460        9.2945983760
 Cl         1.1827887920        2.9035049540       25.0866983760
 Cl         1.3309818480        4.4696636260        7.4226028420
 Cl         2.4963181520       10.1509363740       23.2147028420
 Cl         6.3236181520       11.7799636260        8.3694971580
 Cl         5.1582818480        2.8406363740       24.1615971580
 Cl         4.1651740440        6.0890412820        9.7074038700
 Cl         7.3167259560        8.5315587180       25.4995038700
 Cl         3.4894259560       13.3993412820        6.0846961300
 Cl         0.3378740440        1.2212587180       21.8767961300
 Cl         5.0887780800        8.2618086480        6.8057634160
 Cl         6.3931219200        6.3587913520       22.5978634160
 Cl         2.5658219200        0.9515086480        8.9863365840
 Cl         1.2614780800       13.6690913520       24.7784365840
 Cl         1.4781032600        8.1775939920        7.8925757380
 Cl         2.3491967400        6.4430060080       23.6846757380
 Cl         6.1764967400        0.8672939920        7.8995242620
 Cl         5.3054032600       13.7533060080       23.6916242620
     280
 i =        9, E =     -1636.7547201365
 Eu         3.2464689520        6.3516272580        7.1879322360
 Eu         0.5808310480        8.2689727420       22.9800322360
 Eu         4.4081310480       13.6619272580        8.6041677640
 Eu         7.0737689520        0.9586727420       24.3962677640
  H         0.5133446288        6.5499081600        5.0964340272
  H         3.3141860047        8.0709568275       20.8880610005
  H         7.1413480966       13.8599100630       10.6960836051
  H         4.3405017077        0.7606069303       26.4880555772
  H         7.0069921284        5.5567148375        5.8172218836
  H         4.4747638174        9.0639868613       21.6093164436
  H         0.6482380783       12.8669951097        9.9749900117
  H         3.1794280882        1.7534738952       25.7667792081
  H         6.7163008319        7.1868670400        5.7818977791
  H         4.7653365414        7.4335822883       21.5740267141
  H         0.9380431182       14.4976273418       10.0107085643
  H         2.8893357859        0.1230292849       25.8025426220
  H         3.3044518707        1.0106433814        5.8592870459
  H         0.5232784337       13.6101657695       21.6510504336
  H         4.3505758229        8.3207059859        9.9327633228
  H         7.1310853181        6.2999604759       25.7246216864
  H         2.4836235035        2.0908446339        6.8138141520
  H         1.3430903708       12.5298777622       22.6062334459
  H         5.1710217301        9.4011826711        8.9783168795
  H         6.3103560735        5.2189915596       24.7706956117
  H         3.8508610222        2.6230534073        6.0398587296
  H        -0.0238191411       11.9979007001       21.8313357237
  H         3.8035119594        9.9330348628        9.7519928556
  H         7.6781957906        4.6874461605       25.5438747501
  H         6.5155087646       14.5739628059        2.1353249456
  H         4.9660436961        0.0461706430       17.9277242081
  H         1.1391040924        7.2636341997       13.6567530060
  H         2.6881315298        7.3569602062       29.4487016950
  H         1.9516652796       11.8262719501        6.5929364785
  H         1.8749742241        2.7950327245       22.3849284691
  H         5.7011167881        4.5141212858        9.1984251764
  H         5.7791124575       10.1049431098       24.9909840298
  H         1.5501547591       10.2576006420        7.1013228154
  H         2.2782763764        4.3634194009       22.8933355344
  H         6.1069969663        2.9462722563        8.6905327943
  H         5.3771989780       11.6732683117       24.4826990743
  H         0.3596157664       11.4143499610        6.9752421825
  H         3.4673736270        3.2059886015       22.7679745939
  H         7.2942333028        4.1064598466        8.8174647806
  H         4.1870726998       10.5164257342       24.6087647523
  H         1.9768185412        3.5013905933        4.9289001966
  H         1.8506413625       11.1192280071       20.7208765275
  H         5.6778464497       10.8116807314       10.8632312800
  H         5.8041719356        3.8089012295       26.6553665104
  H         5.3603534491        6.1268200265        4.1724819658
  H         6.1214871843        8.4937919344       19.9647213392
  H         2.2942216689       13.4371244979       11.6195700429
  H         1.5330949425        1.1833891439       27.4115786365
  H         4.9734214287       10.4076622826        2.4386245547
  H         6.5084157762        4.2128794073       18.2308486922
  H         2.6810640966        3.0974750092       13.3532534531
  H         1.1462705209       11.5230953486       29.1452828310
  H         4.6964252980        8.2868874014        3.7153983238
  H         6.7852662266        6.3334036754       19.5079308099
  H         2.9578747553        0.9769702134       12.0761534353
  H         0.8693872998       13.6436117560       27.8682778655
  H         2.9344771938        4.4030135317        3.0670125725
  H         0.8932550710       10.2176157491       18.8589058247
  H         4.7201629899       11.7133694175       12.7252666096
  H         6.7616057045        2.9073105442       28.5172704963
  H         7.0312591583       10.7960719694        1.1301546853
  H         4.4506212813        3.8245024425       16.9223012570
  H         0.6232942520        3.4858225759       14.6618535754
  H         3.2040477731       11.1347374095       30.4538789375
  H         0.8952287653        6.9861063879        2.3445866278
  H         2.9318977921        7.6343369027       18.1372564537
  H         6.7591727372       14.2966038929       13.4469957668
  H         4.7226653889        0.3240519854       29.2392138289
  H         5.4202919307       13.8192625443        4.2347363435
  H         6.0609005022        0.8004840261       20.0273922948
  H         2.2330493824        6.5101551250       11.5561843632
  H         1.5934863723        8.1109599981       27.3492228036
  H         3.1376187318        0.1411885104        3.5604449083
  H         0.6903153965       14.4794179584       19.3522335412
  H         4.5176088021        7.4516793440       12.2317311211
  H         6.9646335413        7.1690335625       28.0237559664
  H         2.0176624369       11.7751358977        2.7821783101
  H         1.8096193199        2.8454330814       18.5742935251
  H         5.6368967721        4.4648890882       13.0098751621
  H         5.8449745317       10.1557425200       28.8020103715
  H         4.7797559066        1.9765940896        0.0603107922
  H         6.7020271333       12.6439993464       15.8524710544
  H         2.8749061701        9.2868790854       15.7318180699
  H         0.9524890887        5.3336796780       31.5238716973
  H         6.4064471668       12.0235064874        5.5696345520
  H         5.0754573000        2.5970378785       21.3617588619
  H         1.2480520719        4.7134848844       10.2223015125
  H         2.5791740921        9.9073894823       26.0145270210
  H         0.3706425747        4.9734653727        3.1358994114
  H         3.4566006963        9.6469172242       18.9283402300
  H         7.2839385760       12.2839042238       12.6561208561
  H         4.1979618310        2.3367175733       28.4481710057
  H         6.4713983427        4.8291477157        2.2746144285
  H         5.0103131818        9.7914000020       18.0666320976
  H         1.1831169400       12.1394504859       13.5175193844
  H         2.6441727797        2.4811411137       29.3096191516
  H         6.6697115243        4.0905689738        3.8818844465
  H         4.8122048315       10.5300430756       19.6739527843
  H         0.9848924241       11.4009303333       11.9101275813
  H         2.8424915087        3.2197881216       27.7023664453
  H         4.3101963877       -0.0357088221        1.3887179398
  H         7.1718647976       14.6562844445       17.1806997980
  H         3.3445564392        7.2747818257       14.4037537876
  H         0.4829351127        7.3458441549       30.1956103590
  H         0.3295920175        9.8267337749        5.1233344020
  H         3.4977789738        4.7937988051       20.9154732296
  H         7.3250970336        2.5165058686       10.6687545262
  H         4.1567837015       12.1040925833       26.4608031027
  H         1.0786972404        0.5646240521        4.7073029345
  H         2.7487016542       14.0560117320       20.4998511997
  H         6.5760028518        7.8749101017       11.0847083933
  H         4.9060693547        6.7457034189       26.8763189209
  H         0.2663685514        1.9245722544        3.9191989346
  H         3.5608586377       12.6962231304       19.7111757692
  H         7.3881457801        9.2348647928       11.8729589448
  H         4.0937520875        5.3860959964       27.6651462432
  H         0.3176288072        1.8278192341        5.6988158241
  H         3.5095917784       12.7921200374       21.4908083589
  H         7.3371066052        9.1383149497       10.0934290784
  H         4.1449251790        5.4819471585       25.8854944033
  H         3.1620314429       10.9193055118        4.6133071796
  H         0.6651509999        3.7013962747       20.4060901886
  H         4.4925810409        3.6090417826       11.1783819224
  H         6.9893545741       11.0116155777       26.9707747081
  H         2.3271599206        9.6835738479        3.6228130628
  H         1.5000498816        4.9363315961       19.4146082563
  H         5.3273388538        2.3735771416       12.1694217533
  H         6.1544521208       12.2471917512       27.9614424559
  H         2.7706719734        9.3260697086        5.2943746149
  H         1.0568610540        5.2950324366       21.0859442031
  H         4.8840884556        2.0156376959       10.4978142040
  H         6.5979978974       12.6048773712       26.2898677585
  C         6.9672169200       13.7959981600        2.7446669800
  C         4.5146830800        0.8246018400       18.5367669800
  C         0.6873830800        6.4856981600       13.0474330200
  C         3.1399169200        8.1349018400       28.8395330200
  C         0.4906598600       13.2170224000        2.3659724220
  C         3.3366401400        1.4035776000       18.1580724220
  C         7.1639401400        5.9067224000       13.4261275780
  C         4.3179598600        8.7138776000       29.2182275780
  C         2.1769682400        2.4372540200        4.7584755720
  C         1.6503317600       12.1833459800       20.5505755720
  C         5.4776317600        9.7475540200       11.0336244280
  C         6.0042682400        4.8730459800       26.8257244280
  C         6.4268021600        6.2342238400        3.9148615900
  C         5.0550978400        8.3863761600       19.7069615900
  C         1.2277978400       13.5445238400       11.8772384100
  C         2.5995021600        1.0760761600       27.6693384100
  C         0.4860671000       11.7871277200        4.2878709920
  C         3.3412329000        2.8334722800       20.0799709920
  C         7.1685329000        4.4768277200       11.5042290080
  C         4.3133671000       10.1437722800       27.2963290080
  C         5.7554937400        9.6510580600        2.4300883480
  C         5.7264062600        4.9695419400       18.2221883480
  C         1.8991062600        2.3407580600       13.3620116520
  C         1.9281937400       12.2798419400       29.1541116520
  C         5.6016362800        8.4740997600        3.1401011640
  C         5.8802637200        6.1465002400       18.9322011640
  C         2.0529637200        1.1637997600       12.6519988360
  C         1.7743362800       13.4568002400       28.4440988360
  C         3.2187593000        3.4182962800        2.7007649420
  C         0.6085407000       11.2023037200       18.4928649420
  C         4.4358407000       10.7285962800       13.0913350580
  C         7.0460593000        3.8920037200       28.8834350580
  C         6.9075110400        9.8791394200        1.6976507500
  C         4.5743889600        4.7414605800       17.4897507500
  C         0.7470889600        2.5688394200       14.0944492500
  C         3.0802110400       12.0517605800       29.8865492500
  C         2.9585029000        2.2851997800        3.4537322700
  C         0.8687971000       12.3354002200       19.2458322700
  C         4.6960971000        9.5954997800       12.3383677300
  C         6.7858029000        5.0251002200       28.1304677300
  C         0.0987443400        7.7240629800        2.3669199480
  C         3.7285556600        6.8965370200       18.1590199480
  C         7.5558556600        0.4137629800       13.4251800520
  C         3.9260443400       14.2068370200       29.2172800520
  C         6.3602071400       13.3763869400        3.9126506960
  C         5.1216928600        1.2442130600       19.7047506960
  C         1.2943928600        6.0660869400       11.8794493040
  C         2.5329071400        8.5545130600       27.6715493040
  C         3.3565421000        1.0424487800        2.9891286880
  C         0.4707579000       13.5781512200       18.7812286880
  C         4.2980579000        8.3527487800       12.8029713120
  C         7.1838421000        6.2678512200       28.5950713120
  C         6.5959688200        7.5076781000        3.1069377540
  C         4.8859311800        7.1129219000       18.8990377540
  C         1.0586311800        0.1973781000       12.6851622460
  C         2.7686688200       14.4232219000       28.4772622460
  C         0.2342307600        8.9024833400        1.6692249700
  C         3.5930692400        5.7181166600       17.4613249700
  C         7.4203692400        1.5921833400       14.1228750300
  C         4.0615307600       13.0284166600       29.9149750300
  C         3.8648075400        3.2808626400        1.4705603520
  C         7.6170924600       11.3397373600       17.2626603520
  C         3.7897924600       10.5911626400       14.3215396480
  C         0.0375075400        4.0294373600       30.1136396480
  C         1.0915459600       12.2213595400        3.1299942200
  C         2.7357540400        2.3992404600       18.9220942200
  C         6.5630540400        4.9110595400       12.6621057800
  C         4.9188459600        9.7095404600       28.4542057800
  C         4.2643776600        2.0615046000        1.0148003460
  C         7.2175223400       12.5590954000       16.8069003460
  C         3.3902223400        9.3718046000       14.7772996540
  C         0.4370776600        5.2487954000       30.5693996540
  C         6.9281784600       12.3617173000        4.6744616000
  C         4.5537215400        2.2588827000       20.4665616000
  C         0.7264215400        5.0514173000       11.1176384000
  C         3.1008784600        9.5691827000       26.9097384000
  C         6.9350676000        4.9563834000        3.2610686500
  C         4.5468324000        9.6642166000       19.0531686500
  C         0.7195324000       12.2666834000       12.5310313500
  C         3.1077676000        2.3539166000       28.3231313500
  C         4.0156031600        0.9401045800        1.7671359900
  C         7.4662968400       13.6804954200       17.5592359900
  C         3.6389968400        8.2504045800       14.0249640100
  C         0.1883031600        6.3701954200       29.8170640100
  C         1.0662857800       10.6423347400        5.0983215640
  C         2.7610142200        3.9782652600       20.8904215640
  C         6.5883142200        3.3320347400       10.6937784360
  C         4.8935857800       11.2885652600       26.4858784360
  C         0.8886990600        1.6433554400        4.7780577760
  C         2.9386009400       12.9772445600       20.5701577760
  C         6.7659009400        8.9536554400       11.0140422240
  C         4.7159990600        5.6669445600       26.8061422240
  C         2.4127299200       10.1174552000        4.6261377740
  C         1.4145700800        4.5031448000       20.4182377740
  C         5.2418700800        2.8071552000       11.1659622260
  C         6.2400299200       11.8134448000       26.9580622260
 Br         1.2639275520       13.6812264500        0.7055910280
 Br         2.5633724480        0.9393735500       16.4976910280
 Br         6.3906724480        6.3709264500       15.0865089720
 Br         5.0912275520        8.2496735500       30.8786089720
 Br         1.8240146340        9.1774968260        0.6740068280
 Br         2.0032853660        5.4431031740       16.4661068280
 Br         5.8305853660        1.8671968260       15.1180931720
 Br         5.6513146340       12.7534031740       30.9101931720
 Br         4.1833154460        4.8416116900        0.4330193820
 Br         7.2985845540        9.7789883100       16.2251193820
 Br         3.4712845540       12.1519116900       15.3590806180
 Br         0.3560154460        2.4686883100       31.1511806180
  N         7.1348526600        6.4023607400        5.2335019400
  N         4.3470473400        8.2182392600       21.0256019400
  N         0.5197473400       13.7126607400       10.5585980600
  N         3.3075526600        0.9079392600       26.3506980600
  N         3.0136160200        2.0088704400        5.9251959200
  N         0.8136839800       12.6117295600       21.7172959200
  N         4.6409839800        9.3191704400        9.8669040800
  N         6.8409160200        5.3014295600       25.6590040800
  N         1.2369833600       11.0721803800        6.5275066140
  N         2.5903166400        3.5484196200       22.3196066140
  N         6.4176166400        3.7618803800        9.2645933860
  N         5.0642833600       10.8587196200       25.0566933860
 Cl         2.6063913000        6.5098221500        4.5970803100
 Cl         1.2209087000        8.1107778500       20.3891803100
 Cl         5.0482087000       13.8201221500       11.1950196900
 Cl         6.4336913000        0.8004778500       26.9871196900
 Cl         5.0100887920        4.4067950460        6.4975016240
 Cl         6.4718112080       10.2138049540       22.2896016240
 Cl         2.6445112080       11.7170950460        9.2945983760
 Cl         1.1827887920        2.9035049540       25.0866983760
 Cl         1.3309818480        4.4696636260        7.4226028420
 Cl         2.4963181520       10.1509363740       23.2147028420
 Cl         6.3236181520       11.7799636260        8.3694971580
 Cl         5.1582818480        2.8406363740       24.1615971580
 Cl         4.1651740440        6.0890412820        9.7074038700
 Cl         7.3167259560        8.5315587180       25.4995038700
 Cl         3.4894259560       13.3993412820        6.0846961300
 Cl         0.3378740440        1.2212587180       21.8767961300
 Cl         5.0887780800        8.2618086480        6.8057634160
 Cl         6.3931219200        6.3587913520       22.5978634160
 Cl         2.5658219200        0.9515086480        8.9863365840
 Cl         1.2614780800       13.6690913520       24.7784365840
 Cl         1.4781032600        8.1775939920        7.8925757380
 Cl         2.3491967400        6.4430060080       23.6846757380
 Cl         6.1764967400        0.8672939920        7.8995242620
 Cl         5.3054032600       13.7533060080       23.6916242620
     280
 i =       10, E =     -1636.7587937198
 Eu         3.2464689520        6.3516272580        7.1879322360
 Eu         0.5808310480        8.2689727420       22.9800322360
 Eu         4.4081310480       13.6619272580        8.6041677640
 Eu         7.0737689520        0.9586727420       24.3962677640
  H         0.5123252342        6.5526404454        5.0961403201
  H         3.3151779935        8.0682412018       20.8878784655
  H         7.1423454766       13.8625442024       10.6962067611
  H         4.3395036959        0.7579558417       26.4882824635
  H         7.0099669848        5.5558569228        5.8167319985
  H         4.4717485902        9.0648009500       21.6088364012
  H         0.6452600888       12.8662167075        9.9754109019
  H         3.1823872322        1.7543270790       25.7673328406
  H         6.7149392200        7.1853013525        5.7828388279
  H         4.7668520690        7.4351339895       21.5748261716
  H         0.9395671801       14.4961153540       10.0099081218
  H         2.8877255687        0.1245169269       25.8018390411
  H         3.3010898523        1.0095196055        5.8613960490
  H         0.5266195152       13.6112646760       21.6533862639
  H         4.3539202239        8.3195856270        9.9306211031
  H         7.1277267982        6.3010757258       25.7224395403
  H         2.4850226911        2.0951910722        6.8142901378
  H         1.3416704755       12.5256780921       22.6067224589
  H         5.1696568781        9.4056492611        8.9779322313
  H         6.3118914743        5.2148070837       24.7701638527
  H         3.8527022689        2.6204256092        6.0373118036
  H        -0.0258221022       12.0007220875       21.8287301318
  H         3.8015344253        9.9302099404        9.7545433870
  H         7.6802424352        4.6903341245       25.5464717536
  H         6.5153718239       14.5738895755        2.1351313222
  H         4.9662321442        0.0463177914       17.9274877389
  H         1.1392537016        7.2635445321       13.6569538209
  H         2.6879775542        7.3570621847       29.4489262036
  H         1.9529360124       11.8248645685        6.5933641097
  H         1.8739369663        2.7962472244       22.3855823513
  H         5.6996150011        4.5125106147        9.1979197079
  H         5.7802958561       10.1062464172       24.9905993418
  H         1.5481673186       10.2576158656        7.1019720686
  H         2.2802945513        4.3635001411       22.8939207868
  H         6.1096366853        2.9461040060        8.6897651215
  H         5.3749535987       11.6733761125       24.4820145657
  H         0.3599504759       11.4164963469        6.9741985101
  H         3.4670207726        3.2035515235       22.7666621631
  H         7.2937808519        4.1090315453        8.8188689150
  H         4.1874043681       10.5142091733       24.6099969592
  H         1.9771332011        3.5015678007        4.9289909910
  H         1.8503460646       11.1190670853       20.7210338225
  H         5.6775373652       10.8118474080       10.8630692376
  H         5.8044331398        3.8087479211       26.6551414969
  H         5.3603818485        6.1268864775        4.1727961490
  H         6.1214593214        8.4937050644       19.9650371301
  H         2.2941875930       13.4372246241       11.6192247063
  H         1.5331281009        1.1833162705       27.4112836704
  H         4.9732164655       10.4075909886        2.4382341091
  H         6.5086133201        4.2129435440       18.2304653081
  H         2.6812611163        3.0974124441       13.3536327920
  H         1.1460783452       11.5231527935       29.1456557234
  H         4.6964081096        8.2868522677        3.7155382199
  H         6.7852694861        6.3334620169       19.5080836026
  H         2.9578753796        0.9769113019       12.0759970495
  H         0.8694111563       13.6436945554       27.8680963073
  H         2.9341410947        4.4030612148        3.0668534192
  H         0.8935868126       10.2175761763       18.8587767073
  H         4.7205281832       11.7134028075       12.7254136482
  H         6.7612665253        2.9072513398       28.5174745502
  H         7.0313141905       10.7962178399        1.1301743768
  H         4.4505630146        3.8243543763       16.9223246809
  H         0.6232292134        3.4859749725       14.6618220404
  H         3.2041161502       11.1345845086       30.4538478362
  H         0.8953041652        6.9860340832        2.3443852254
  H         2.9318198259        7.6344091927       18.1370399391
  H         6.7590950860       14.2965304696       13.4472229810
  H         4.7227536178        0.3241130109       29.2394269469
  H         5.4203154737       13.8193327212        4.2349582128
  H         6.0610345233        0.8006090837       20.0275190481
  H         2.2331141948        6.5101352835       11.5560460993
  H         1.5934149880        8.1109837322       27.3490493319
  H         3.1377003797        0.1411006480        3.5604301430
  H         0.6901216350       14.4795182619       19.3522454959
  H         4.5174515904        7.4515677279       12.2317419979
  H         6.9647859970        7.1691185150       28.0237356495
  H         2.0178972487       11.7753312013        2.7822139997
  H         1.8093811551        2.8452278317       18.5743249876
  H         5.6366579825        4.4650915357       13.0098379789
  H         5.8452103022       10.1555432165       28.8019753366
  H         4.7793980351        1.9765018259        0.0600265594
  H         6.7024073250       12.6440944584       15.8521743703
  H         2.8752686820        9.2867869209       15.7321048446
  H         0.9521320108        5.3337694152       31.5241558127
  H         6.4061723502       12.0235753684        5.5695903031
  H         5.0756763691        2.5969569789       21.3617448337
  H         1.2483553744        4.7135345032       10.2223725558
  H         2.5788917102        9.9073042403       26.0145761813
  H         0.3706481467        4.9741219243        3.1345176704
  H         3.4565894243        9.6463085858       18.9269917861
  H         7.2839324823       12.2845298730       12.6575149749
  H         4.1979617472        2.3360533953       28.4496124215
  H         6.4702447950        4.8285497812        2.2750746126
  H         5.0114675443        9.7919869936       18.0670906104
  H         1.1843101912       12.1388287482       13.5170389191
  H         2.6430420707        2.4817332844       29.3091695788
  H         6.6708676102        4.0905708391        3.8825842453
  H         4.8110353648       10.5300962593       19.6745817445
  H         0.9836762744       11.4008831781       11.9094718261
  H         2.8436664957        3.2197794079       27.7016516714
  H         4.3103399881       -0.0357572312        1.3887158431
  H         7.1717114863       14.6563338728       17.1806965400
  H         3.3444160025        7.2747206622       14.4037325008
  H         0.4830692215        7.3459048908       30.1956104638
  H         0.3293189943        9.8268613351        5.1237986091
  H         3.4980570606        4.7936658095       20.9159263981
  H         7.3253880026        2.5166449997       10.6683029167
  H         4.1565329568       12.1039762036       26.4603727863
  H         1.0784563959        0.5645359750        4.7056147702
  H         2.7489794797       14.0561083952       20.4982448705
  H         6.5762381779        7.8748215612       11.0863552187
  H         4.9058361971        6.7457963593       26.8778960854
  H         0.2653668771        1.9259955509        3.9202365274
  H         3.5618361875       12.6948768333       19.7121752246
  H         7.3891333500        9.2362430575       11.8719443973
  H         4.0927657577        5.3847148701       27.6641317375
  H         0.3183832116        1.8265724380        5.6997459078
  H         3.5088890389       12.7933709159       21.4917221571
  H         7.3363819681        9.1370233724       10.0924892963
  H         4.1456266433        5.4831442003       25.8846068302
  H         3.1617350821       10.9197281202        4.6116878744
  H         0.6654032907        3.7010096153       20.4045727048
  H         4.4928560118        3.6094484563       11.1799794005
  H         6.9890402404       11.0111765734       26.9724488811
  H         2.3266096315        9.6821972399        3.6232618719
  H         1.5005501966        4.9375894717       19.4150018534
  H         5.3278814003        2.3722249735       12.1689835540
  H         6.1539113597       12.2485854044       27.9609863033
  H         2.7716057985        9.3269770272        5.2952238763
  H         1.0559999966        5.2942827735       21.0866440668
  H         4.8831580337        2.0164634103       10.4970520806
  H         6.5989204083       12.6040212650       26.2890770734
  C         6.9672169200       13.7959981600        2.7446669800
  C         4.5146830800        0.8246018400       18.5367669800
  C         0.6873830800        6.4856981600       13.0474330200
  C         3.1399169200        8.1349018400       28.8395330200
  C         0.4906598600       13.2170224000        2.3659724220
  C         3.3366401400        1.4035776000       18.1580724220
  C         7.1639401400        5.9067224000       13.4261275780
  C         4.3179598600        8.7138776000       29.2182275780
  C         2.1769682400        2.4372540200        4.7584755720
  C         1.6503317600       12.1833459800       20.5505755720
  C         5.4776317600        9.7475540200       11.0336244280
  C         6.0042682400        4.8730459800       26.8257244280
  C         6.4268021600        6.2342238400        3.9148615900
  C         5.0550978400        8.3863761600       19.7069615900
  C         1.2277978400       13.5445238400       11.8772384100
  C         2.5995021600        1.0760761600       27.6693384100
  C         0.4860671000       11.7871277200        4.2878709920
  C         3.3412329000        2.8334722800       20.0799709920
  C         7.1685329000        4.4768277200       11.5042290080
  C         4.3133671000       10.1437722800       27.2963290080
  C         5.7554937400        9.6510580600        2.4300883480
  C         5.7264062600        4.9695419400       18.2221883480
  C         1.8991062600        2.3407580600       13.3620116520
  C         1.9281937400       12.2798419400       29.1541116520
  C         5.6016362800        8.4740997600        3.1401011640
  C         5.8802637200        6.1465002400       18.9322011640
  C         2.0529637200        1.1637997600       12.6519988360
  C         1.7743362800       13.4568002400       28.4440988360
  C         3.2187593000        3.4182962800        2.7007649420
  C         0.6085407000       11.2023037200       18.4928649420
  C         4.4358407000       10.7285962800       13.0913350580
  C         7.0460593000        3.8920037200       28.8834350580
  C         6.9075110400        9.8791394200        1.6976507500
  C         4.5743889600        4.7414605800       17.4897507500
  C         0.7470889600        2.5688394200       14.0944492500
  C         3.0802110400       12.0517605800       29.8865492500
  C         2.9585029000        2.2851997800        3.4537322700
  C         0.8687971000       12.3354002200       19.2458322700
  C         4.6960971000        9.5954997800       12.3383677300
  C         6.7858029000        5.0251002200       28.1304677300
  C         0.0987443400        7.7240629800        2.3669199480
  C         3.7285556600        6.8965370200       18.1590199480
  C         7.5558556600        0.4137629800       13.4251800520
  C         3.9260443400       14.2068370200       29.2172800520
  C         6.3602071400       13.3763869400        3.9126506960
  C         5.1216928600        1.2442130600       19.7047506960
  C         1.2943928600        6.0660869400       11.8794493040
  C         2.5329071400        8.5545130600       27.6715493040
  C         3.3565421000        1.0424487800        2.9891286880
  C         0.4707579000       13.5781512200       18.7812286880
  C         4.2980579000        8.3527487800       12.8029713120
  C         7.1838421000        6.2678512200       28.5950713120
  C         6.5959688200        7.5076781000        3.1069377540
  C         4.8859311800        7.1129219000       18.8990377540
  C         1.0586311800        0.1973781000       12.6851622460
  C         2.7686688200       14.4232219000       28.4772622460
  C         0.2342307600        8.9024833400        1.6692249700
  C         3.5930692400        5.7181166600       17.4613249700
  C         7.4203692400        1.5921833400       14.1228750300
  C         4.0615307600       13.0284166600       29.9149750300
  C         3.8648075400        3.2808626400        1.4705603520
  C         7.6170924600       11.3397373600       17.2626603520
  C         3.7897924600       10.5911626400       14.3215396480
  C         0.0375075400        4.0294373600       30.1136396480
  C         1.0915459600       12.2213595400        3.1299942200
  C         2.7357540400        2.3992404600       18.9220942200
  C         6.5630540400        4.9110595400       12.6621057800
  C         4.9188459600        9.7095404600       28.4542057800
  C         4.2643776600        2.0615046000        1.0148003460
  C         7.2175223400       12.5590954000       16.8069003460
  C         3.3902223400        9.3718046000       14.7772996540
  C         0.4370776600        5.2487954000       30.5693996540
  C         6.9281784600       12.3617173000        4.6744616000
  C         4.5537215400        2.2588827000       20.4665616000
  C         0.7264215400        5.0514173000       11.1176384000
  C         3.1008784600        9.5691827000       26.9097384000
  C         6.9350676000        4.9563834000        3.2610686500
  C         4.5468324000        9.6642166000       19.0531686500
  C         0.7195324000       12.2666834000       12.5310313500
  C         3.1077676000        2.3539166000       28.3231313500
  C         4.0156031600        0.9401045800        1.7671359900
  C         7.4662968400       13.6804954200       17.5592359900
  C         3.6389968400        8.2504045800       14.0249640100
  C         0.1883031600        6.3701954200       29.8170640100
  C         1.0662857800       10.6423347400        5.0983215640
  C         2.7610142200        3.9782652600       20.8904215640
  C         6.5883142200        3.3320347400       10.6937784360
  C         4.8935857800       11.2885652600       26.4858784360
  C         0.8886990600        1.6433554400        4.7780577760
  C         2.9386009400       12.9772445600       20.5701577760
  C         6.7659009400        8.9536554400       11.0140422240
  C         4.7159990600        5.6669445600       26.8061422240
  C         2.4127299200       10.1174552000        4.6261377740
  C         1.4145700800        4.5031448000       20.4182377740
  C         5.2418700800        2.8071552000       11.1659622260
  C         6.2400299200       11.8134448000       26.9580622260
 Br         1.2639275520       13.6812264500        0.7055910280
 Br         2.5633724480        0.9393735500       16.4976910280
 Br         6.3906724480        6.3709264500       15.0865089720
 Br         5.0912275520        8.2496735500       30.8786089720
 Br         1.8240146340        9.1774968260        0.6740068280
 Br         2.0032853660        5.4431031740       16.4661068280
 Br         5.8305853660        1.8671968260       15.1180931720
 Br         5.6513146340       12.7534031740       30.9101931720
 Br         4.1833154460        4.8416116900        0.4330193820
 Br         7.2985845540        9.7789883100       16.2251193820
 Br         3.4712845540       12.1519116900       15.3590806180
 Br         0.3560154460        2.4686883100       31.1511806180
  N         7.1348526600        6.4023607400        5.2335019400
  N         4.3470473400        8.2182392600       21.0256019400
  N         0.5197473400       13.7126607400       10.5585980600
  N         3.3075526600        0.9079392600       26.3506980600
  N         3.0136160200        2.0088704400        5.9251959200
  N         0.8136839800       12.6117295600       21.7172959200
  N         4.6409839800        9.3191704400        9.8669040800
  N         6.8409160200        5.3014295600       25.6590040800
  N         1.2369833600       11.0721803800        6.5275066140
  N         2.5903166400        3.5484196200       22.3196066140
  N         6.4176166400        3.7618803800        9.2645933860
  N         5.0642833600       10.8587196200       25.0566933860
 Cl         2.6063913000        6.5098221500        4.5970803100
 Cl         1.2209087000        8.1107778500       20.3891803100
 Cl         5.0482087000       13.8201221500       11.1950196900
 Cl         6.4336913000        0.8004778500       26.9871196900
 Cl         5.0100887920        4.4067950460        6.4975016240
 Cl         6.4718112080       10.2138049540       22.2896016240
 Cl         2.6445112080       11.7170950460        9.2945983760
 Cl         1.1827887920        2.9035049540       25.0866983760
 Cl         1.3309818480        4.4696636260        7.4226028420
 Cl         2.4963181520       10.1509363740       23.2147028420
 Cl         6.3236181520       11.7799636260        8.3694971580
 Cl         5.1582818480        2.8406363740       24.1615971580
 Cl         4.1651740440        6.0890412820        9.7074038700
 Cl         7.3167259560        8.5315587180       25.4995038700
 Cl         3.4894259560       13.3993412820        6.0846961300
 Cl         0.3378740440        1.2212587180       21.8767961300
 Cl         5.0887780800        8.2618086480        6.8057634160
 Cl         6.3931219200        6.3587913520       22.5978634160
 Cl         2.5658219200        0.9515086480        8.9863365840
 Cl         1.2614780800       13.6690913520       24.7784365840
 Cl         1.4781032600        8.1775939920        7.8925757380
 Cl         2.3491967400        6.4430060080       23.6846757380
 Cl         6.1764967400        0.8672939920        7.8995242620
 Cl         5.3054032600       13.7533060080       23.6916242620
     280
 i =       11, E =     -1636.7594527092
 Eu         3.2464689520        6.3516272580        7.1879322360
 Eu         0.5808310480        8.2689727420       22.9800322360
 Eu         4.4081310480       13.6619272580        8.6041677640
 Eu         7.0737689520        0.9586727420       24.3962677640
  H         0.5116042024        6.5546365651        5.0958667302
  H         3.3158990504        8.0661353011       20.8876500746
  H         7.1430853817       13.8646133599       10.6964142743
  H         4.3388110787        0.7557661463       26.4884990222
  H         7.0120933817        5.5551376276        5.8162751534
  H         4.4697101276        9.0654699111       21.6083928188
  H         0.6432746063       12.8655697590        9.9758276615
  H         3.1843544283        1.7549805659       25.7678105970
  H         6.7136507020        7.1841720970        5.7834434715
  H         4.7682236097        7.4362444633       21.5753386556
  H         0.9409640837       14.4950444272       10.0094149625
  H         2.8865062510        0.1256534608       25.8012851027
  H         3.2983670036        1.0085597611        5.8629266342
  H         0.5293541279       13.6122127869       21.6548953962
  H         4.3567630689        8.3185764057        9.9290095532
  H         7.1249206378        6.3020419488       25.7210204788
  H         2.4860264580        2.0987595110        6.8146307164
  H         1.3406960636       12.5220064836       22.6069720955
  H         5.1686577079        9.4093193730        8.9776480559
  H         6.3131110679        5.2113474363       24.7697024645
  H         3.8542618269        2.6183445820        6.0350807370
  H        -0.0274789634       12.0029157989       21.8265386482
  H         3.7999534029        9.9280910416        9.7567270417
  H         7.6820358837        4.6925819318       25.5490116939
  H         6.5153630376       14.5739785664        2.1350722407
  H         4.9662792039        0.0463047506       17.9273346722
  H         1.1392416044        7.2636439264       13.6570385812
  H         2.6879591240        7.3569994171       29.4490449271
  H         1.9537921168       11.8240481589        6.5933897125
  H         1.8730718145        2.7970210043       22.3858380460
  H         5.6985036125        4.5114606724        9.1977683709
  H         5.7812086804       10.1071029875       24.9904834395
  H         1.5466262695       10.2574909679        7.1023775860
  H         2.2818296805        4.3635705082       22.8944665404
  H         6.1115945829        2.9459385633        8.6891795393
  H         5.3731545546       11.6735765705       24.4814377175
  H         0.3600069336       11.4179470765        6.9733851512
  H         3.4670491589        3.2016215194       22.7648594014
  H         7.2936537221        4.1108141673        8.8199987840
  H         4.1874668994       10.5126627063       24.6109465614
  H         1.9770696325        3.5016147449        4.9288665742
  H         1.8504018526       11.1190273512       20.7209459511
  H         5.6776005819       10.8118870912       10.8631610529
  H         5.8044026647        3.8086883839       26.6552880917
  H         5.3603610122        6.1267833023        4.1727316205
  H         6.1214744776        8.4938113483       19.9649862941
  H         2.2941975887       13.4371355602       11.6192620310
  H         1.5331015714        1.1835212672       27.4113959079
  H         4.9732275100       10.4077533848        2.4384039304
  H         6.5086051701        4.2127834892       18.2306230847
  H         2.6812669730        3.0975583779       13.3534952137
  H         1.1460648257       11.5230117464       29.1455402783
  H         4.6965598390        8.2870633092        3.7160691216
  H         6.7851209737        6.3332725991       19.5085998642
  H         2.9577298050        0.9770985451       12.0754882181
  H         0.8695262727       13.6435468188       27.8676459622
  H         2.9335912111        4.4031087466        3.0666242246
  H         0.8941069744       10.2175294933       18.8585722273
  H         4.7211223668       11.7134433502       12.7256574191
  H         6.7607046256        2.9072060785       28.5177011861
  H         7.0317048569       10.7967033374        1.1308076617
  H         4.4501781050        3.8238721880       16.9229511737
  H         0.6228453195        3.4864540964       14.6612005530
  H         3.2044855046       11.1341162151       30.4532491905
  H         0.8951985462        6.9857674685        2.3439724669
  H         2.9319284114        7.6346815781       18.1366174896
  H         6.7592025367       14.2962587349       13.4476442137
  H         4.7226536917        0.3243765781       29.2398176792
  H         5.4205622687       13.8198385859        4.2354007481
  H         6.0607754493        0.8001659478       20.0279513836
  H         2.2329189817        6.5105628186       11.5556968164
  H         1.5936094617        8.1105559981       27.3486690737
  H         3.1385264831        0.1411297665        3.5609835278
  H         0.6892126268       14.4794186190       19.3529248406
  H         4.5165694955        7.4515946168       12.2311667478
  H         6.9656711734        7.1690792582       28.0231435153
  H         2.0186528367       11.7761095763        2.7828334169
  H         1.8086272835        2.8444489666       18.5749427655
  H         5.6359051186        4.4658647483       13.0092190068
  H         5.8459614013       10.1547701429       28.8013633782
  H         4.7793061023        1.9765061207        0.0598520331
  H         6.7025376790       12.6440993616       15.8519805047
  H         2.8753627807        9.2867897131       15.7322802603
  H         0.9520276393        5.3337747895       31.5243364011
  H         6.4062480584       12.0237400600        5.5698170215
  H         5.0756107542        2.5968145577       21.3619507560
  H         1.2483388424        4.7136292581       10.2222069587
  H         2.5789497269        9.9070974672       26.0143481608
  H         0.3706264670        4.9747587320        3.1333266556
  H         3.4566115603        9.6456810324       18.9257911679
  H         7.2839587637       12.2851905389       12.6587419371
  H         4.1979422837        2.3353632909       28.4508303730
  H         6.4693278734        4.8280962342        2.2754265285
  H         5.0123689854        9.7924111742       18.0674293576
  H         1.1852397981       12.1383666059       13.5166808745
  H         2.6421066042        2.4821853436       29.3088107617
  H         6.6720074692        4.0904399456        3.8830324585
  H         4.8099147007       10.5302554717       19.6749881503
  H         0.9825104993       11.4007317772       11.9090403529
  H         2.8447206684        3.2198473122       27.7011445108
  H         4.3111750549       -0.0357893888        1.3890901837
  H         7.1708147959       14.6563019646       17.1810249036
  H         3.3435660861        7.2746954816       14.4033506896
  H         0.4838867919        7.3459312969       30.1952565950
  H         0.3292812202        9.8268607801        5.1238021341
  H         3.4980848612        4.7936778133       20.9159297732
  H         7.3254378689        2.5166529382       10.6683045508
  H         4.1566098082       12.1040650159       26.4604485900
  H         1.0782406299        0.5645065434        4.7041867645
  H         2.7491665826       14.0561336113       20.4968438237
  H         6.5764282218        7.8747946401       11.0877742202
  H         4.9056080343        6.7458355371       26.8792359585
  H         0.2643716623        1.9272202845        3.9212330366
  H         3.5627885708       12.6937024707       19.7131163126
  H         7.3901095142        9.2374392473       11.8709741254
  H         4.0917959860        5.3835167290       27.6631696758
  H         0.3192145308        1.8255707798        5.7006564455
  H         3.5082560726       12.7944526008       21.4925589916
  H         7.3355608221        9.1360135066       10.0915734185
  H         4.1463278408        5.4842034888       25.8837657077
  H         3.1614279275       10.9201170635        4.6101619484
  H         0.6656748688        3.7006513587       20.4031457249
  H         4.4931444872        3.6098194081       11.1814794975
  H         6.9887117690       11.0107682663       26.9739973054
  H         2.3260908731        9.6810428917        3.6236483342
  H         1.5010895862        4.9386225050       19.4153339366
  H         5.3284246982        2.3711156402       12.1686171245
  H         6.1533871882       12.2497531216       27.9605973892
  H         2.7725278793        9.3278098259        5.2958805089
  H         1.0551478369        5.2935717936       21.0871986198
  H         4.8822500128        2.0172508065       10.4964352422
  H         6.5997302086       12.6031911945       26.2884033964
  C         6.9672169200       13.7959981600        2.7446669800
  C         4.5146830800        0.8246018400       18.5367669800
  C         0.6873830800        6.4856981600       13.0474330200
  C         3.1399169200        8.1349018400       28.8395330200
  C         0.4906598600       13.2170224000        2.3659724220
  C         3.3366401400        1.4035776000       18.1580724220
  C         7.1639401400        5.9067224000       13.4261275780
  C         4.3179598600        8.7138776000       29.2182275780
  C         2.1769682400        2.4372540200        4.7584755720
  C         1.6503317600       12.1833459800       20.5505755720
  C         5.4776317600        9.7475540200       11.0336244280
  C         6.0042682400        4.8730459800       26.8257244280
  C         6.4268021600        6.2342238400        3.9148615900
  C         5.0550978400        8.3863761600       19.7069615900
  C         1.2277978400       13.5445238400       11.8772384100
  C         2.5995021600        1.0760761600       27.6693384100
  C         0.4860671000       11.7871277200        4.2878709920
  C         3.3412329000        2.8334722800       20.0799709920
  C         7.1685329000        4.4768277200       11.5042290080
  C         4.3133671000       10.1437722800       27.2963290080
  C         5.7554937400        9.6510580600        2.4300883480
  C         5.7264062600        4.9695419400       18.2221883480
  C         1.8991062600        2.3407580600       13.3620116520
  C         1.9281937400       12.2798419400       29.1541116520
  C         5.6016362800        8.4740997600        3.1401011640
  C         5.8802637200        6.1465002400       18.9322011640
  C         2.0529637200        1.1637997600       12.6519988360
  C         1.7743362800       13.4568002400       28.4440988360
  C         3.2187593000        3.4182962800        2.7007649420
  C         0.6085407000       11.2023037200       18.4928649420
  C         4.4358407000       10.7285962800       13.0913350580
  C         7.0460593000        3.8920037200       28.8834350580
  C         6.9075110400        9.8791394200        1.6976507500
  C         4.5743889600        4.7414605800       17.4897507500
  C         0.7470889600        2.5688394200       14.0944492500
  C         3.0802110400       12.0517605800       29.8865492500
  C         2.9585029000        2.2851997800        3.4537322700
  C         0.8687971000       12.3354002200       19.2458322700
  C         4.6960971000        9.5954997800       12.3383677300
  C         6.7858029000        5.0251002200       28.1304677300
  C         0.0987443400        7.7240629800        2.3669199480
  C         3.7285556600        6.8965370200       18.1590199480
  C         7.5558556600        0.4137629800       13.4251800520
  C         3.9260443400       14.2068370200       29.2172800520
  C         6.3602071400       13.3763869400        3.9126506960
  C         5.1216928600        1.2442130600       19.7047506960
  C         1.2943928600        6.0660869400       11.8794493040
  C         2.5329071400        8.5545130600       27.6715493040
  C         3.3565421000        1.0424487800        2.9891286880
  C         0.4707579000       13.5781512200       18.7812286880
  C         4.2980579000        8.3527487800       12.8029713120
  C         7.1838421000        6.2678512200       28.5950713120
  C         6.5959688200        7.5076781000        3.1069377540
  C         4.8859311800        7.1129219000       18.8990377540
  C         1.0586311800        0.1973781000       12.6851622460
  C         2.7686688200       14.4232219000       28.4772622460
  C         0.2342307600        8.9024833400        1.6692249700
  C         3.5930692400        5.7181166600       17.4613249700
  C         7.4203692400        1.5921833400       14.1228750300
  C         4.0615307600       13.0284166600       29.9149750300
  C         3.8648075400        3.2808626400        1.4705603520
  C         7.6170924600       11.3397373600       17.2626603520
  C         3.7897924600       10.5911626400       14.3215396480
  C         0.0375075400        4.0294373600       30.1136396480
  C         1.0915459600       12.2213595400        3.1299942200
  C         2.7357540400        2.3992404600       18.9220942200
  C         6.5630540400        4.9110595400       12.6621057800
  C         4.9188459600        9.7095404600       28.4542057800
  C         4.2643776600        2.0615046000        1.0148003460
  C         7.2175223400       12.5590954000       16.8069003460
  C         3.3902223400        9.3718046000       14.7772996540
  C         0.4370776600        5.2487954000       30.5693996540
  C         6.9281784600       12.3617173000        4.6744616000
  C         4.5537215400        2.2588827000       20.4665616000
  C         0.7264215400        5.0514173000       11.1176384000
  C         3.1008784600        9.5691827000       26.9097384000
  C         6.9350676000        4.9563834000        3.2610686500
  C         4.5468324000        9.6642166000       19.0531686500
  C         0.7195324000       12.2666834000       12.5310313500
  C         3.1077676000        2.3539166000       28.3231313500
  C         4.0156031600        0.9401045800        1.7671359900
  C         7.4662968400       13.6804954200       17.5592359900
  C         3.6389968400        8.2504045800       14.0249640100
  C         0.1883031600        6.3701954200       29.8170640100
  C         1.0662857800       10.6423347400        5.0983215640
  C         2.7610142200        3.9782652600       20.8904215640
  C         6.5883142200        3.3320347400       10.6937784360
  C         4.8935857800       11.2885652600       26.4858784360
  C         0.8886990600        1.6433554400        4.7780577760
  C         2.9386009400       12.9772445600       20.5701577760
  C         6.7659009400        8.9536554400       11.0140422240
  C         4.7159990600        5.6669445600       26.8061422240
  C         2.4127299200       10.1174552000        4.6261377740
  C         1.4145700800        4.5031448000       20.4182377740
  C         5.2418700800        2.8071552000       11.1659622260
  C         6.2400299200       11.8134448000       26.9580622260
 Br         1.2639275520       13.6812264500        0.7055910280
 Br         2.5633724480        0.9393735500       16.4976910280
 Br         6.3906724480        6.3709264500       15.0865089720
 Br         5.0912275520        8.2496735500       30.8786089720
 Br         1.8240146340        9.1774968260        0.6740068280
 Br         2.0032853660        5.4431031740       16.4661068280
 Br         5.8305853660        1.8671968260       15.1180931720
 Br         5.6513146340       12.7534031740       30.9101931720
 Br         4.1833154460        4.8416116900        0.4330193820
 Br         7.2985845540        9.7789883100       16.2251193820
 Br         3.4712845540       12.1519116900       15.3590806180
 Br         0.3560154460        2.4686883100       31.1511806180
  N         7.1348526600        6.4023607400        5.2335019400
  N         4.3470473400        8.2182392600       21.0256019400
  N         0.5197473400       13.7126607400       10.5585980600
  N         3.3075526600        0.9079392600       26.3506980600
  N         3.0136160200        2.0088704400        5.9251959200
  N         0.8136839800       12.6117295600       21.7172959200
  N         4.6409839800        9.3191704400        9.8669040800
  N         6.8409160200        5.3014295600       25.6590040800
  N         1.2369833600       11.0721803800        6.5275066140
  N         2.5903166400        3.5484196200       22.3196066140
  N         6.4176166400        3.7618803800        9.2645933860
  N         5.0642833600       10.8587196200       25.0566933860
 Cl         2.6063913000        6.5098221500        4.5970803100
 Cl         1.2209087000        8.1107778500       20.3891803100
 Cl         5.0482087000       13.8201221500       11.1950196900
 Cl         6.4336913000        0.8004778500       26.9871196900
 Cl         5.0100887920        4.4067950460        6.4975016240
 Cl         6.4718112080       10.2138049540       22.2896016240
 Cl         2.6445112080       11.7170950460        9.2945983760
 Cl         1.1827887920        2.9035049540       25.0866983760
 Cl         1.3309818480        4.4696636260        7.4226028420
 Cl         2.4963181520       10.1509363740       23.2147028420
 Cl         6.3236181520       11.7799636260        8.3694971580
 Cl         5.1582818480        2.8406363740       24.1615971580
 Cl         4.1651740440        6.0890412820        9.7074038700
 Cl         7.3167259560        8.5315587180       25.4995038700
 Cl         3.4894259560       13.3993412820        6.0846961300
 Cl         0.3378740440        1.2212587180       21.8767961300
 Cl         5.0887780800        8.2618086480        6.8057634160
 Cl         6.3931219200        6.3587913520       22.5978634160
 Cl         2.5658219200        0.9515086480        8.9863365840
 Cl         1.2614780800       13.6690913520       24.7784365840
 Cl         1.4781032600        8.1775939920        7.8925757380
 Cl         2.3491967400        6.4430060080       23.6846757380
 Cl         6.1764967400        0.8672939920        7.8995242620
 Cl         5.3054032600       13.7533060080       23.6916242620
     280
 i =       12, E =     -1636.7581333695
 Eu         3.2464689520        6.3516272580        7.1879322360
 Eu         0.5808310480        8.2689727420       22.9800322360
 Eu         4.4081310480       13.6619272580        8.6041677640
 Eu         7.0737689520        0.9586727420       24.3962677640
  H         0.5114347084        6.5554716660        5.0957424009
  H         3.3160817694        8.0652229787       20.8875375394
  H         7.1432794031       13.8655336716       10.6965203563
  H         4.3386810019        0.7549387688       26.4884038755
  H         7.0128065459        5.5547807121        5.8159237843
  H         4.4690668226        9.0658052229       21.6080785979
  H         0.6426784979       12.8652445240        9.9761400716
  H         3.1851379435        1.7550855427       25.7677776218
  H         6.7128009269        7.1837505701        5.7835826839
  H         4.7690328226        7.4366909551       21.5755555608
  H         0.9417816082       14.4946205376       10.0092243667
  H         2.8856820588        0.1265033939       25.8006307864
  H         3.2969072036        1.0080094049        5.8636434551
  H         0.5309843194       13.6128138040       21.6555486150
  H         4.3583354606        8.3179961359        9.9282565196
  H         7.1233227326        6.3026135037       25.7205020815
  H         2.4864515391        2.1006331739        6.8147242445
  H         1.3402421856       12.5199908869       22.6070426651
  H         5.1681783488        9.4112131574        8.9775107758
  H         6.3138088860        5.2094515218       24.7694363599
  H         3.8552027120        2.6172600619        6.0339159228
  H        -0.0283721017       12.0039457451       21.8253897590
  H         3.7990801124        9.9270852425        9.7579039470
  H         7.6830928919        4.6936613634       25.5507982832
  H         6.5155347496       14.5742169477        2.1351809210
  H         4.9661748542        0.0461651912       17.9273595773
  H         1.1390782340        7.2638595937       13.6569565643
  H         2.6880826990        7.3568280323       29.4489846554
  H         1.9540789483       11.8238986947        6.5932244640
  H         1.8727273136        2.7971756103       22.3857120086
  H         5.6980788336        4.5111710218        9.1978578318
  H         5.7816332923       10.1073824943       24.9905243622
  H         1.5459680493       10.2572772230        7.1025041368
  H         2.2828466038        4.3637181346       22.8948769547
  H         6.1123216045        2.9457679231        8.6889913193
  H         5.3725059526       11.6734976502       24.4809390256
  H         0.3599045482       11.4183983039        6.9730758874
  H         3.4672980369        3.2011258605       22.7639415883
  H         7.2937410171        4.1114288580        8.8203831491
  H         4.1873571711       10.5121110342       24.6113217793
  H         1.9768050779        3.5015445014        4.9287052229
  H         1.8506304298       11.1190858930       20.7207535528
  H         5.6778454526       10.8118233634       10.8633560843
  H         5.8041760234        3.8087428085       26.6555470699
  H         5.3603238688        6.1266151034        4.1724454369
  H         6.1215048147        8.4939988768       19.9647288016
  H         2.2942257995       13.4369518010       11.6195256149
  H         1.5330589249        1.1837105930       27.4116552279
  H         4.9734535397       10.4080442409        2.4389882682
  H         6.5083912244        4.2125022459       18.2311851232
  H         2.6810713913        3.0978195542       13.3529636709
  H         1.1462453804       11.5227644220       29.1450470538
  H         4.6968163825        8.2873770369        3.7166831005
  H         6.7848894333        6.3329622689       19.5091765875
  H         2.9575072734        0.9774024442       12.0749308275
  H         0.8697125777       13.6432468223       27.8671461603
  H         2.9331414878        4.4031126539        3.0664443145
  H         0.8945278623       10.2175175950       18.8583953852
  H         4.7216108998       11.7134494317       12.7258696792
  H         6.7602215832        2.9072133926       28.5178582572
  H         7.0321994014       10.7972341441        1.1316801063
  H         4.4496930419        3.8233478940       16.9238093054
  H         0.6223670632        3.4869707939       14.6603552965
  H         3.2049424668       11.1336172512       30.4524355748
  H         0.8949734293        6.9854790184        2.3435544525
  H         2.9321495462        7.6349695411       18.1362087447
  H         6.7594224573       14.2959732323       13.4480483407
  H         4.7224404645        0.3246581542       29.2401632824
  H         5.4209514898       13.8205022281        4.2358451019
  H         6.0604143235        0.7995165943       20.0283116012
  H         2.2325546276        6.5111472313       11.5552710920
  H         1.5939659012        8.1099512728       27.3482808659
  H         3.1396257119        0.1412539991        3.5617381131
  H         0.6880313306       14.4792553080       19.3537782647
  H         4.5154613636        7.4517516730       12.2303650929
  H         6.9668021514        7.1689479565       28.0223638255
  H         2.0194771154       11.7770368808        2.7836408271
  H         1.8078055351        2.8435279422       18.5757490778
  H         5.6350862341        4.4667812911       13.0084129968
  H         5.8467782730       10.1538518333       28.8005662244
  H         4.7794977990        1.9765758345        0.0598887597
  H         6.7023801666       12.6440371319       15.8520001029
  H         2.8751709907        9.2868596382       15.7322439733
  H         0.9521978570        5.3337104003       31.5243098619
  H         6.4065669238       12.0239424043        5.5701434485
  H         5.0753394937        2.5966627660       21.3622362637
  H         1.2480685497        4.7137642151       10.2219303623
  H         2.5792533167        9.9068956451       26.0140285363
  H         0.3705492156        4.9751729253        3.1326343898
  H         3.4566908106        9.6452525597       18.9250818832
  H         7.2840407885       12.2856458777       12.6594622768
  H         4.1978761964        2.3349502194       28.4514596202
  H         6.4688650499        4.8278539679        2.2756434295
  H         5.0128165436        9.7926208217       18.0676309179
  H         1.1856985348       12.1381308346       13.5164682198
  H         2.6416070929        2.4824418962       29.3085767420
  H         6.6727774271        4.0903188537        3.8831876899
  H         4.8091788625       10.5303647518       19.6751501337
  H         0.9817428287       11.4006289565       11.9088598832
  H         2.8454712956        3.2199431156       27.7009565449
  H         4.3122183927       -0.0357537460        1.3896012785
  H         7.1697178588       14.6562502059       17.1815456185
  H         3.3425082105        7.2747421813       14.4028527448
  H         0.4849095955        7.3458907096       30.1947615957
  H         0.3294188062        9.8267798363        5.1234788286
  H         3.4979354445        4.7937733177       20.9156520529
  H         7.3252923884        2.5165652491       10.6686182891
  H         4.1567894844       12.1041820677       26.4608196179
  H         1.0781152240        0.5645706661        4.7033075950
  H         2.7492190210       14.0560631731       20.4959690044
  H         6.5765281438        7.8748605736       11.0886590845
  H         4.9055024010        6.7457713077       26.8801246625
  H         0.2637351270        1.9279490883        3.9219107407
  H         3.5633474740       12.6929870174       19.7137255756
  H         7.3907457610        9.2381690107       11.8702947183
  H         4.0911964208        5.3828225016       27.6625326186
  H         0.3198826271        1.8249774277        5.7012490474
  H         3.5077073817       12.7950859248       21.4931015846
  H         7.3348979549        9.1354541550       10.0909954195
  H         4.1469474822        5.4847903541       25.8832055276
  H         3.1611796395       10.9203414371        4.6091825376
  H         0.6658929420        3.7004535969       20.4022237069
  H         4.4933805113        3.6100303301       11.1824500917
  H         6.9884972004       11.0105766616       26.9749550094
  H         2.3257800536        9.6803746259        3.6239333534
  H         1.5014172391        4.9392055966       19.4155769709
  H         5.3287564871        2.3704755899       12.1683469429
  H         6.1530484817       12.2504325164       27.9603070504
  H         2.7731319339        9.3284017923        5.2962285086
  H         1.0545901553        5.2930272985       21.0875229871
  H         4.8816662367        2.0178434411       10.4960746577
  H         6.6002669450       12.6026026230       26.2880487799
  C         6.9672169200       13.7959981600        2.7446669800
  C         4.5146830800        0.8246018400       18.5367669800
  C         0.6873830800        6.4856981600       13.0474330200
  C         3.1399169200        8.1349018400       28.8395330200
  C         0.4906598600       13.2170224000        2.3659724220
  C         3.3366401400        1.4035776000       18.1580724220
  C         7.1639401400        5.9067224000       13.4261275780
  C         4.3179598600        8.7138776000       29.2182275780
  C         2.1769682400        2.4372540200        4.7584755720
  C         1.6503317600       12.1833459800       20.5505755720
  C         5.4776317600        9.7475540200       11.0336244280
  C         6.0042682400        4.8730459800       26.8257244280
  C         6.4268021600        6.2342238400        3.9148615900
  C         5.0550978400        8.3863761600       19.7069615900
  C         1.2277978400       13.5445238400       11.8772384100
  C         2.5995021600        1.0760761600       27.6693384100
  C         0.4860671000       11.7871277200        4.2878709920
  C         3.3412329000        2.8334722800       20.0799709920
  C         7.1685329000        4.4768277200       11.5042290080
  C         4.3133671000       10.1437722800       27.2963290080
  C         5.7554937400        9.6510580600        2.4300883480
  C         5.7264062600        4.9695419400       18.2221883480
  C         1.8991062600        2.3407580600       13.3620116520
  C         1.9281937400       12.2798419400       29.1541116520
  C         5.6016362800        8.4740997600        3.1401011640
  C         5.8802637200        6.1465002400       18.9322011640
  C         2.0529637200        1.1637997600       12.6519988360
  C         1.7743362800       13.4568002400       28.4440988360
  C         3.2187593000        3.4182962800        2.7007649420
  C         0.6085407000       11.2023037200       18.4928649420
  C         4.4358407000       10.7285962800       13.0913350580
  C         7.0460593000        3.8920037200       28.8834350580
  C         6.9075110400        9.8791394200        1.6976507500
  C         4.5743889600        4.7414605800       17.4897507500
  C         0.7470889600        2.5688394200       14.0944492500
  C         3.0802110400       12.0517605800       29.8865492500
  C         2.9585029000        2.2851997800        3.4537322700
  C         0.8687971000       12.3354002200       19.2458322700
  C         4.6960971000        9.5954997800       12.3383677300
  C         6.7858029000        5.0251002200       28.1304677300
  C         0.0987443400        7.7240629800        2.3669199480
  C         3.7285556600        6.8965370200       18.1590199480
  C         7.5558556600        0.4137629800       13.4251800520
  C         3.9260443400       14.2068370200       29.2172800520
  C         6.3602071400       13.3763869400        3.9126506960
  C         5.1216928600        1.2442130600       19.7047506960
  C         1.2943928600        6.0660869400       11.8794493040
  C         2.5329071400        8.5545130600       27.6715493040
  C         3.3565421000        1.0424487800        2.9891286880
  C         0.4707579000       13.5781512200       18.7812286880
  C         4.2980579000        8.3527487800       12.8029713120
  C         7.1838421000        6.2678512200       28.5950713120
  C         6.5959688200        7.5076781000        3.1069377540
  C         4.8859311800        7.1129219000       18.8990377540
  C         1.0586311800        0.1973781000       12.6851622460
  C         2.7686688200       14.4232219000       28.4772622460
  C         0.2342307600        8.9024833400        1.6692249700
  C         3.5930692400        5.7181166600       17.4613249700
  C         7.4203692400        1.5921833400       14.1228750300
  C         4.0615307600       13.0284166600       29.9149750300
  C         3.8648075400        3.2808626400        1.4705603520
  C         7.6170924600       11.3397373600       17.2626603520
  C         3.7897924600       10.5911626400       14.3215396480
  C         0.0375075400        4.0294373600       30.1136396480
  C         1.0915459600       12.2213595400        3.1299942200
  C         2.7357540400        2.3992404600       18.9220942200
  C         6.5630540400        4.9110595400       12.6621057800
  C         4.9188459600        9.7095404600       28.4542057800
  C         4.2643776600        2.0615046000        1.0148003460
  C         7.2175223400       12.5590954000       16.8069003460
  C         3.3902223400        9.3718046000       14.7772996540
  C         0.4370776600        5.2487954000       30.5693996540
  C         6.9281784600       12.3617173000        4.6744616000
  C         4.5537215400        2.2588827000       20.4665616000
  C         0.7264215400        5.0514173000       11.1176384000
  C         3.1008784600        9.5691827000       26.9097384000
  C         6.9350676000        4.9563834000        3.2610686500
  C         4.5468324000        9.6642166000       19.0531686500
  C         0.7195324000       12.2666834000       12.5310313500
  C         3.1077676000        2.3539166000       28.3231313500
  C         4.0156031600        0.9401045800        1.7671359900
  C         7.4662968400       13.6804954200       17.5592359900
  C         3.6389968400        8.2504045800       14.0249640100
  C         0.1883031600        6.3701954200       29.8170640100
  C         1.0662857800       10.6423347400        5.0983215640
  C         2.7610142200        3.9782652600       20.8904215640
  C         6.5883142200        3.3320347400       10.6937784360
  C         4.8935857800       11.2885652600       26.4858784360
  C         0.8886990600        1.6433554400        4.7780577760
  C         2.9386009400       12.9772445600       20.5701577760
  C         6.7659009400        8.9536554400       11.0140422240
  C         4.7159990600        5.6669445600       26.8061422240
  C         2.4127299200       10.1174552000        4.6261377740
  C         1.4145700800        4.5031448000       20.4182377740
  C         5.2418700800        2.8071552000       11.1659622260
  C         6.2400299200       11.8134448000       26.9580622260
 Br         1.2639275520       13.6812264500        0.7055910280
 Br         2.5633724480        0.9393735500       16.4976910280
 Br         6.3906724480        6.3709264500       15.0865089720
 Br         5.0912275520        8.2496735500       30.8786089720
 Br         1.8240146340        9.1774968260        0.6740068280
 Br         2.0032853660        5.4431031740       16.4661068280
 Br         5.8305853660        1.8671968260       15.1180931720
 Br         5.6513146340       12.7534031740       30.9101931720
 Br         4.1833154460        4.8416116900        0.4330193820
 Br         7.2985845540        9.7789883100       16.2251193820
 Br         3.4712845540       12.1519116900       15.3590806180
 Br         0.3560154460        2.4686883100       31.1511806180
  N         7.1348526600        6.4023607400        5.2335019400
  N         4.3470473400        8.2182392600       21.0256019400
  N         0.5197473400       13.7126607400       10.5585980600
  N         3.3075526600        0.9079392600       26.3506980600
  N         3.0136160200        2.0088704400        5.9251959200
  N         0.8136839800       12.6117295600       21.7172959200
  N         4.6409839800        9.3191704400        9.8669040800
  N         6.8409160200        5.3014295600       25.6590040800
  N         1.2369833600       11.0721803800        6.5275066140
  N         2.5903166400        3.5484196200       22.3196066140
  N         6.4176166400        3.7618803800        9.2645933860
  N         5.0642833600       10.8587196200       25.0566933860
 Cl         2.6063913000        6.5098221500        4.5970803100
 Cl         1.2209087000        8.1107778500       20.3891803100
 Cl         5.0482087000       13.8201221500       11.1950196900
 Cl         6.4336913000        0.8004778500       26.9871196900
 Cl         5.0100887920        4.4067950460        6.4975016240
 Cl         6.4718112080       10.2138049540       22.2896016240
 Cl         2.6445112080       11.7170950460        9.2945983760
 Cl         1.1827887920        2.9035049540       25.0866983760
 Cl         1.3309818480        4.4696636260        7.4226028420
 Cl         2.4963181520       10.1509363740       23.2147028420
 Cl         6.3236181520       11.7799636260        8.3694971580
 Cl         5.1582818480        2.8406363740       24.1615971580
 Cl         4.1651740440        6.0890412820        9.7074038700
 Cl         7.3167259560        8.5315587180       25.4995038700
 Cl         3.4894259560       13.3993412820        6.0846961300
 Cl         0.3378740440        1.2212587180       21.8767961300
 Cl         5.0887780800        8.2618086480        6.8057634160
 Cl         6.3931219200        6.3587913520       22.5978634160
 Cl         2.5658219200        0.9515086480        8.9863365840
 Cl         1.2614780800       13.6690913520       24.7784365840
 Cl         1.4781032600        8.1775939920        7.8925757380
 Cl         2.3491967400        6.4430060080       23.6846757380
 Cl         6.1764967400        0.8672939920        7.8995242620
 Cl         5.3054032600       13.7533060080       23.6916242620
     280
 i =       13, E =     -1636.7571411188
 Eu         3.2464689520        6.3516272580        7.1879322360
 Eu         0.5808310480        8.2689727420       22.9800322360
 Eu         4.4081310480       13.6619272580        8.6041677640
 Eu         7.0737689520        0.9586727420       24.3962677640
  H         0.5116590646        6.5555063512        5.0958201002
  H         3.3158656921        8.0652189487       20.8875711483
  H         7.1430623213       13.8655485700       10.6964949740
  H         4.3388844936        0.7548867829       26.4882152790
  H         7.0125904440        5.5547380022        5.8157425726
  H         4.4692795040        9.0658805606       21.6078943424
  H         0.6429112254       12.8651700343        9.9763334533
  H         3.1850808662        1.7551203859       25.7678588219
  H         6.7125052291        7.1837658110        5.7835732338
  H         4.7692689018        7.4366960015       21.5756351468
  H         0.9420186878       14.4946189055       10.0091701140
  H         2.8853602240        0.1267241477       25.8003931301
  H         3.2964049313        1.0077989694        5.8638472576
  H         0.5315527613       13.6130473131       21.6557756144
  H         4.3588290843        8.3177945736        9.9280598745
  H         7.1227464717        6.3028488053       25.7203732020
  H         2.4865227330        2.1011780745        6.8146737065
  H         1.3401781767       12.5192932882       22.6069934264
  H         5.1680908060        9.4117762395        8.9775130215
  H         6.3141541429        5.2087291010       24.7693221435
  H         3.8555787568        2.6169765816        6.0336486617
  H        -0.0286947162       12.0041664962       21.8251005354
  H         3.7987522869        9.9268582694        9.7581900743
  H         7.6835894080        4.6940268785       25.5513308245
  H         6.5157690197       14.5744634344        2.1353615347
  H         4.9660105633        0.0459975923       17.9275070279
  H         1.1388829224        7.2640627791       13.6567850613
  H         2.6882559571        7.3566529551       29.4488242286
  H         1.9540328718       11.8240599447        6.5931124609
  H         1.8727271987        2.7970555688       22.3855755963
  H         5.6980865916        4.5112851899        9.1979840300
  H         5.7815669323       10.1072116256       24.9906943557
  H         1.5460057511       10.2570761410        7.1024468247
  H         2.2830600265        4.3638440081       22.8950182842
  H         6.1121202101        2.9456388025        8.6890793183
  H         5.3723914522       11.6735827591       24.4807945647
  H         0.3598208202       11.4182035336        6.9731873751
  H         3.4674175532        3.2014281667       22.7641115582
  H         7.2938348107        4.1112469876        8.8201834133
  H         4.1872715889       10.5121807859       24.6112630863
  H         1.9766276072        3.5014604702        4.9286291373
  H         1.8507861147       11.1191570759       20.7206364852
  H         5.6780126471       10.8117468093       10.8634716159
  H         5.8040013251        3.8088203184       26.6556858374
  H         5.3603041972        6.1264972014        4.1722460471
  H         6.1215237983        8.4941246825       19.9645319044
  H         2.2942451423       13.4368209833       11.6197320057
  H         1.5330455926        1.1837949327       27.4118057895
  H         4.9737403827       10.4083031964        2.4395881314
  H         6.5081167878        4.2122552203       18.2317658078
  H         2.6808091619        3.0980532086       13.3524071447
  H         1.1464924516       11.5225456473       29.1445185572
  H         4.6970213926        8.2876125323        3.7170543941
  H         6.7847029240        6.3327271385       19.5095208930
  H         2.9573284746        0.9776306500       12.0746032299
  H         0.8698736328       13.6429995989       27.8668452030
  H         2.9329893249        4.4030826052        3.0663866620
  H         0.8946700397       10.2175395302       18.8583250353
  H         4.7217832203       11.7134248746       12.7259585437
  H         6.7600501128        2.9072401779       28.5179353425
  H         7.0325298793       10.7975424936        1.1322997578
  H         4.4493689670        3.8230467556       16.9244165540
  H         0.6220508656        3.4872650279       14.6597604980
  H         3.2052453619       11.1333363282       30.4518634469
  H         0.8947890640        6.9853310056        2.3433226355
  H         2.9323297874        7.6351132395       18.1359965151
  H         6.7596018830       14.2958317933       13.4482564501
  H         4.7222826578        0.3247808176       29.2403229741
  H         5.4212669257       13.8209597872        4.2361000526
  H         6.0601735960        0.7990998438       20.0284728996
  H         2.2322577899        6.5115654295       11.5550185909
  H         1.5942712957        8.1095198545       27.3480483995
  H         3.1404141196        0.1413737554        3.5622529916
  H         0.6871687256       14.4791620061       19.3542997039
  H         4.5146761280        7.4518930657       12.2298229602
  H         6.9675915194        7.1688272894       28.0218440082
  H         2.0199449816       11.7776242457        2.7841639327
  H         1.8073392299        2.8429465475       18.5762744279
  H         5.6346228690        4.4673615874       13.0078915231
  H         5.8472410969       10.1532723833       28.8000477565
  H         4.7798105374        1.9766455938        0.0600678090
  H         6.7020823858       12.6439672132       15.8521719900
  H         2.8748586577        9.2869319176       15.7320649977
  H         0.9524921705        5.3336359652       31.5241404509
  H         6.4068659863       12.0241064899        5.5703710678
  H         5.0750920524        2.5965455274       21.3624228405
  H         1.2477921992        4.7138891237       10.2217283415
  H         2.5795441775        9.9067701367       26.0138150522
  H         0.3704484758        4.9753337225        3.1323684587
  H         3.4567926878        9.6450782461       18.9248174765
  H         7.2841440605       12.2858305678       12.6597318123
  H         4.1977796592        2.3348208678       28.4516803331
  H         6.4687198326        4.8277324720        2.2757795841
  H         5.0129566130        9.7927276262       18.0677609396
  H         1.1858430616       12.1380131040       13.5163328824
  H         2.6414682482        2.4825778000       29.3084400812
  H         6.6731277963        4.0903116203        3.8832303744
  H         4.8088564858       10.5303440544       19.6752183043
  H         0.9814010663       11.4006500519       11.9087836099
  H         2.8458515007        3.2199608858       27.7009136624
  H         4.3129145970       -0.0356811494        1.3899608883
  H         7.1690144028       14.6562133186       17.1819592269
  H         3.3418074066        7.2748180494       14.4025016742
  H         0.4855930743        7.3458174076       30.1944066697
  H         0.3295687144        9.8267006159        5.1231813476
  H         3.4977829408        4.7938557658       20.9153820628
  H         7.3251340785        2.5164794790       10.6689105684
  H         4.1569043803       12.1042405583       26.4610981780
  H         1.0780851209        0.5646794362        4.7028357090
  H         2.7492033166       14.0559527193       20.4954891958
  H         6.5765555888        7.8749684845       11.0891315765
  H         4.9055057456        6.7456573978       26.8806253247
  H         0.2634894410        1.9282907272        3.9222587332
  H         3.5635397157       12.6926618014       19.7140291899
  H         7.3909983475        9.2385179140       11.8699344324
  H         4.0909674381        5.3825144726       27.6622067770
  H         0.3202601649        1.8246443686        5.7014906815
  H         3.5073218443       12.7953594205       21.4933254153
  H         7.3345107474        9.1351529668       10.0907629779
  H         4.1473544239        5.4850812661       25.8829557648
  H         3.1610181896       10.9204159341        4.6087574024
  H         0.6660458404        3.7003874610       20.4018343759
  H         4.4935417675        3.6101025887       11.1828700931
  H         6.9883965643       11.0105600718       26.9753462872
  H         2.3256890466        9.6800617795        3.6241424101
  H         1.5014953624        4.9394861086       19.4157665243
  H         5.3288546598        2.3701608363       12.1681385180
  H         6.1529382641       12.2507370728       27.9601009436
  H         2.7733744153        9.3287654754        5.2963967687
  H         1.0543637275        5.2926544402       21.0877138975
  H         4.8814261983        2.0182351420       10.4958739976
  H         6.6005171082       12.6022520151       26.2879086336
  C         6.9672169200       13.7959981600        2.7446669800
  C         4.5146830800        0.8246018400       18.5367669800
  C         0.6873830800        6.4856981600       13.0474330200
  C         3.1399169200        8.1349018400       28.8395330200
  C         0.4906598600       13.2170224000        2.3659724220
  C         3.3366401400        1.4035776000       18.1580724220
  C         7.1639401400        5.9067224000       13.4261275780
  C         4.3179598600        8.7138776000       29.2182275780
  C         2.1769682400        2.4372540200        4.7584755720
  C         1.6503317600       12.1833459800       20.5505755720
  C         5.4776317600        9.7475540200       11.0336244280
  C         6.0042682400        4.8730459800       26.8257244280
  C         6.4268021600        6.2342238400        3.9148615900
  C         5.0550978400        8.3863761600       19.7069615900
  C         1.2277978400       13.5445238400       11.8772384100
  C         2.5995021600        1.0760761600       27.6693384100
  C         0.4860671000       11.7871277200        4.2878709920
  C         3.3412329000        2.8334722800       20.0799709920
  C         7.1685329000        4.4768277200       11.5042290080
  C         4.3133671000       10.1437722800       27.2963290080
  C         5.7554937400        9.6510580600        2.4300883480
  C         5.7264062600        4.9695419400       18.2221883480
  C         1.8991062600        2.3407580600       13.3620116520
  C         1.9281937400       12.2798419400       29.1541116520
  C         5.6016362800        8.4740997600        3.1401011640
  C         5.8802637200        6.1465002400       18.9322011640
  C         2.0529637200        1.1637997600       12.6519988360
  C         1.7743362800       13.4568002400       28.4440988360
  C         3.2187593000        3.4182962800        2.7007649420
  C         0.6085407000       11.2023037200       18.4928649420
  C         4.4358407000       10.7285962800       13.0913350580
  C         7.0460593000        3.8920037200       28.8834350580
  C         6.9075110400        9.8791394200        1.6976507500
  C         4.5743889600        4.7414605800       17.4897507500
  C         0.7470889600        2.5688394200       14.0944492500
  C         3.0802110400       12.0517605800       29.8865492500
  C         2.9585029000        2.2851997800        3.4537322700
  C         0.8687971000       12.3354002200       19.2458322700
  C         4.6960971000        9.5954997800       12.3383677300
  C         6.7858029000        5.0251002200       28.1304677300
  C         0.0987443400        7.7240629800        2.3669199480
  C         3.7285556600        6.8965370200       18.1590199480
  C         7.5558556600        0.4137629800       13.4251800520
  C         3.9260443400       14.2068370200       29.2172800520
  C         6.3602071400       13.3763869400        3.9126506960
  C         5.1216928600        1.2442130600       19.7047506960
  C         1.2943928600        6.0660869400       11.8794493040
  C         2.5329071400        8.5545130600       27.6715493040
  C         3.3565421000        1.0424487800        2.9891286880
  C         0.4707579000       13.5781512200       18.7812286880
  C         4.2980579000        8.3527487800       12.8029713120
  C         7.1838421000        6.2678512200       28.5950713120
  C         6.5959688200        7.5076781000        3.1069377540
  C         4.8859311800        7.1129219000       18.8990377540
  C         1.0586311800        0.1973781000       12.6851622460
  C         2.7686688200       14.4232219000       28.4772622460
  C         0.2342307600        8.9024833400        1.6692249700
  C         3.5930692400        5.7181166600       17.4613249700
  C         7.4203692400        1.5921833400       14.1228750300
  C         4.0615307600       13.0284166600       29.9149750300
  C         3.8648075400        3.2808626400        1.4705603520
  C         7.6170924600       11.3397373600       17.2626603520
  C         3.7897924600       10.5911626400       14.3215396480
  C         0.0375075400        4.0294373600       30.1136396480
  C         1.0915459600       12.2213595400        3.1299942200
  C         2.7357540400        2.3992404600       18.9220942200
  C         6.5630540400        4.9110595400       12.6621057800
  C         4.9188459600        9.7095404600       28.4542057800
  C         4.2643776600        2.0615046000        1.0148003460
  C         7.2175223400       12.5590954000       16.8069003460
  C         3.3902223400        9.3718046000       14.7772996540
  C         0.4370776600        5.2487954000       30.5693996540
  C         6.9281784600       12.3617173000        4.6744616000
  C         4.5537215400        2.2588827000       20.4665616000
  C         0.7264215400        5.0514173000       11.1176384000
  C         3.1008784600        9.5691827000       26.9097384000
  C         6.9350676000        4.9563834000        3.2610686500
  C         4.5468324000        9.6642166000       19.0531686500
  C         0.7195324000       12.2666834000       12.5310313500
  C         3.1077676000        2.3539166000       28.3231313500
  C         4.0156031600        0.9401045800        1.7671359900
  C         7.4662968400       13.6804954200       17.5592359900
  C         3.6389968400        8.2504045800       14.0249640100
  C         0.1883031600        6.3701954200       29.8170640100
  C         1.0662857800       10.6423347400        5.0983215640
  C         2.7610142200        3.9782652600       20.8904215640
  C         6.5883142200        3.3320347400       10.6937784360
  C         4.8935857800       11.2885652600       26.4858784360
  C         0.8886990600        1.6433554400        4.7780577760
  C         2.9386009400       12.9772445600       20.5701577760
  C         6.7659009400        8.9536554400       11.0140422240
  C         4.7159990600        5.6669445600       26.8061422240
  C         2.4127299200       10.1174552000        4.6261377740
  C         1.4145700800        4.5031448000       20.4182377740
  C         5.2418700800        2.8071552000       11.1659622260
  C         6.2400299200       11.8134448000       26.9580622260
 Br         1.2639275520       13.6812264500        0.7055910280
 Br         2.5633724480        0.9393735500       16.4976910280
 Br         6.3906724480        6.3709264500       15.0865089720
 Br         5.0912275520        8.2496735500       30.8786089720
 Br         1.8240146340        9.1774968260        0.6740068280
 Br         2.0032853660        5.4431031740       16.4661068280
 Br         5.8305853660        1.8671968260       15.1180931720
 Br         5.6513146340       12.7534031740       30.9101931720
 Br         4.1833154460        4.8416116900        0.4330193820
 Br         7.2985845540        9.7789883100       16.2251193820
 Br         3.4712845540       12.1519116900       15.3590806180
 Br         0.3560154460        2.4686883100       31.1511806180
  N         7.1348526600        6.4023607400        5.2335019400
  N         4.3470473400        8.2182392600       21.0256019400
  N         0.5197473400       13.7126607400       10.5585980600
  N         3.3075526600        0.9079392600       26.3506980600
  N         3.0136160200        2.0088704400        5.9251959200
  N         0.8136839800       12.6117295600       21.7172959200
  N         4.6409839800        9.3191704400        9.8669040800
  N         6.8409160200        5.3014295600       25.6590040800
  N         1.2369833600       11.0721803800        6.5275066140
  N         2.5903166400        3.5484196200       22.3196066140
  N         6.4176166400        3.7618803800        9.2645933860
  N         5.0642833600       10.8587196200       25.0566933860
 Cl         2.6063913000        6.5098221500        4.5970803100
 Cl         1.2209087000        8.1107778500       20.3891803100
 Cl         5.0482087000       13.8201221500       11.1950196900
 Cl         6.4336913000        0.8004778500       26.9871196900
 Cl         5.0100887920        4.4067950460        6.4975016240
 Cl         6.4718112080       10.2138049540       22.2896016240
 Cl         2.6445112080       11.7170950460        9.2945983760
 Cl         1.1827887920        2.9035049540       25.0866983760
 Cl         1.3309818480        4.4696636260        7.4226028420
 Cl         2.4963181520       10.1509363740       23.2147028420
 Cl         6.3236181520       11.7799636260        8.3694971580
 Cl         5.1582818480        2.8406363740       24.1615971580
 Cl         4.1651740440        6.0890412820        9.7074038700
 Cl         7.3167259560        8.5315587180       25.4995038700
 Cl         3.4894259560       13.3993412820        6.0846961300
 Cl         0.3378740440        1.2212587180       21.8767961300
 Cl         5.0887780800        8.2618086480        6.8057634160
 Cl         6.3931219200        6.3587913520       22.5978634160
 Cl         2.5658219200        0.9515086480        8.9863365840
 Cl         1.2614780800       13.6690913520       24.7784365840
 Cl         1.4781032600        8.1775939920        7.8925757380
 Cl         2.3491967400        6.4430060080       23.6846757380
 Cl         6.1764967400        0.8672939920        7.8995242620
 Cl         5.3054032600       13.7533060080       23.6916242620
     280
 i =       14, E =     -1636.7571145224
 Eu         3.2464689520        6.3516272580        7.1879322360
 Eu         0.5808310480        8.2689727420       22.9800322360
 Eu         4.4081310480       13.6619272580        8.6041677640
 Eu         7.0737689520        0.9586727420       24.3962677640
  H         0.5119982818        6.5550817143        5.0959229613
  H         3.3155246787        8.0656955317       20.8876707048
  H         7.1427150834       13.8650763484       10.6964123556
  H         4.3391882648        0.7552488468       26.4881545429
  H         7.0119722310        5.5548622837        5.8157226433
  H         4.4698353186        9.0657896564       21.6078578247
  H         0.6434748110       12.8652542022        9.9763842203
  H         3.1846332648        1.7551330140       25.7680156718
  H         6.7126503251        7.1839928495        5.7835338435
  H         4.7690944380        7.4364646819       21.5756115262
  H         0.9418388547       14.4948399605       10.0092046094
  H         2.8853952933        0.1264672242       25.8005813377
  H         3.2964657242        1.0078015249        5.8638147653
  H         0.5315041260       13.6130784711       21.6558382053
  H         4.3587037471        8.3178270932        9.9280996067
  H         7.1227239024        6.3028877384       25.7203757333
  H         2.4864046166        2.1010850310        6.8145674336
  H         1.3402565596       12.5192835856       22.6069341349
  H         5.1682165839        9.4116371821        8.9776009241
  H         6.3139886154        5.2085576990       24.7694791313
  H         3.8555465325        2.6171611874        6.0338883644
  H        -0.0286588059       12.0039728504       21.8252936341
  H         3.7987630218        9.9270278907        9.7579877954
  H         7.6836012720        4.6939612529       25.5509300380
  H         6.5159658577       14.5746484824        2.1355389683
  H         4.9658478707        0.0458424639       17.9276810819
  H         1.1387158936        7.2642234177       13.6566060795
  H         2.6884262368        7.3564958381       29.4486510445
  H         1.9538426291       11.8243052454        6.5931093728
  H         1.8728641955        2.7968685753       22.3853340650
  H         5.6983890591        4.5116247208        9.1980645985
  H         5.7813606310       10.1069599091       24.9907965952
  H         1.5466320996       10.2570379130        7.1022591563
  H         2.2826398637        4.3638798379       22.8949165692
  H         6.1114655615        2.9455778381        8.6893156726
  H         5.3727518614       11.6737600764       24.4810395286
  H         0.3597802310       11.4177293273        6.9734879318
  H         3.4674571924        3.2022992493       22.7649836523
  H         7.2938769567        4.1106663026        8.8197031539
  H         4.1872078983       10.5125418563       24.6110630146
  H         1.9765967255        3.5014161546        4.9286309993
  H         1.8508196226       11.1191963865       20.7206237345
  H         5.6780459952       10.8117045499       10.8634814742
  H         5.8039597461        3.8088631863       26.6556863822
  H         5.3603033014        6.1264695299        4.1722013217
  H         6.1215293757        8.4941511535       19.9644734018
  H         2.2942512375       13.4367861300       11.6197938639
  H         1.5330485412        1.1837529521       27.4118109374
  H         4.9740024440       10.4085028222        2.4400542815
  H         6.5078645696        4.2120658593       18.2322216875
  H         2.6805624211        3.0982367700       13.3519703341
  H         1.1467260780       11.5223763570       29.1440924646
  H         4.6971492346        8.2877380590        3.7172110576
  H         6.7845858453        6.3325981347       19.5096626846
  H         2.9572162627        0.9777507536       12.0744730694
  H         0.8699826817       13.6428626069       27.8667171797
  H         2.9330473541        4.4030551007        3.0663900241
  H         0.8946160068       10.2175690371       18.8583330167
  H         4.7217308311       11.7133945131       12.7259532193
  H         6.7601023700        2.9072689501       28.5179316719
  H         7.0326894952       10.7976600505        1.1326217885
  H         4.4492121156        3.8229342952       16.9247308502
  H         0.6219019880        3.4873715049       14.6594577843
  H         3.2053901935       11.1332372069       30.4515723770
  H         0.8946937096        6.9853067928        2.3432624043
  H         2.9324208310        7.6351314465       18.1359415933
  H         6.7596935812       14.2958136793       13.4483089682
  H         4.7222174396        0.3247730223       29.2403610125
  H         5.4214560736       13.8211803259        4.2362082840
  H         6.0600484028        0.7989648086       20.0285573464
  H         2.2320538730        6.5117996048       11.5549034597
  H         1.5944666289        8.1093017813       27.3479367015
  H         3.1408445415        0.1414457613        3.5624905196
  H         0.6866942035       14.4791238745       19.3545143349
  H         4.5142534885        7.4519614863       12.2295937000
  H         6.9680041720        7.1687581566       28.0216157854
  H         2.0200929759       11.7778663673        2.7843709114
  H         1.8071897939        2.8427061690       18.5764876931
  H         5.6344775054        4.4676026669       13.0076891925
  H         5.8473867585       10.1530355945       28.7998401552
  H         4.7801339765        1.9766942687        0.0602863732
  H         6.7017589701       12.6439138188       15.8523901884
  H         2.8745358112        9.2869814023       15.7318465978
  H         0.9528029924        5.3335840899       31.5239289976
  H         6.4070468116       12.0242352684        5.5704836217
  H         5.0749683325        2.5964454811       21.3624934748
  H         1.2476193889        4.7140054772       10.2216250313
  H         2.5797186528        9.9067071024       26.0137254176
  H         0.3703686290        4.9753526801        3.1323305673
  H         3.4568702089        9.6450681469       18.9247976435
  H         7.2842223570       12.2858418615       12.6597570541
  H         4.1977016134        2.3348486703       28.4516865659
  H         6.4687138335        4.8276705362        2.2758608375
  H         5.0129691724        9.7927966781       18.0678458957
  H         1.1858577679       12.1379443157       13.5162460859
  H         2.6414687973        2.4826592775       29.3083576560
  H         6.6731875687        4.0903968762        3.8832754726
  H         4.8087954229       10.5302550227       19.6752653580
  H         0.9813282567       11.4007362947       11.9087333560
  H         2.8460013543        3.2199631395       27.7009531821
  H         4.3132568935       -0.0356107514        1.3901502393
  H         7.1687042716       14.6561819865       17.1821864963
  H         3.3414665433        7.2748867454       14.4023107319
  H         0.4859303496        7.3457471070       30.1942177301
  H         0.3296388581        9.8266674584        5.1230452418
  H         3.4977188712        4.7938805460       20.9152567797
  H         7.3250524860        2.5164375608       10.6690420476
  H         4.1568998525       12.1042220902       26.4611605941
  H         1.0781046279        0.5647723963        4.7025685763
  H         2.7491819625       14.0558653609       20.4952404978
  H         6.5765513571        7.8750589074       11.0893917740
  H         4.9055376983        6.7455625349       26.8809077039
  H         0.2634620027        1.9284546659        3.9224074851
  H         3.5635695186       12.6925236866       19.7141715068
  H         7.3910351678        9.2386795526       11.8697780090
  H         4.0909550024        5.3823828740       27.6620803695
  H         0.3204093410        1.8244253318        5.7015360762
  H         3.5070549576       12.7954100923       21.4933765534
  H         7.3343594029        9.1349241174       10.0907180882
  H         4.1476084154        5.4852194815       25.8828621538
  H         3.1609404940       10.9204111166        4.6086520329
  H         0.6661425336        3.7003727168       20.4017765891
  H         4.4936296442        3.6101074969       11.1829848251
  H         6.9883644607       11.0106073848       26.9754094236
  H         2.3257099216        9.6799244886        3.6242842941
  H         1.5014457020        4.9396449312       19.4159141991
  H         5.3288218092        2.3699965160       12.1679852308
  H         6.1529608405       12.2508622717       27.9599656710
  H         2.7734258967        9.3289923531        5.2965212690
  H         1.0543312439        5.2924204506       21.0878507832
  H         4.8813802678        2.0184725298       10.4957404947
  H         6.6006115611       12.6020477335       26.2878171941
  C         6.9672169200       13.7959981600        2.7446669800
  C         4.5146830800        0.8246018400       18.5367669800
  C         0.6873830800        6.4856981600       13.0474330200
  C         3.1399169200        8.1349018400       28.8395330200
  C         0.4906598600       13.2170224000        2.3659724220
  C         3.3366401400        1.4035776000       18.1580724220
  C         7.1639401400        5.9067224000       13.4261275780
  C         4.3179598600        8.7138776000       29.2182275780
  C         2.1769682400        2.4372540200        4.7584755720
  C         1.6503317600       12.1833459800       20.5505755720
  C         5.4776317600        9.7475540200       11.0336244280
  C         6.0042682400        4.8730459800       26.8257244280
  C         6.4268021600        6.2342238400        3.9148615900
  C         5.0550978400        8.3863761600       19.7069615900
  C         1.2277978400       13.5445238400       11.8772384100
  C         2.5995021600        1.0760761600       27.6693384100
  C         0.4860671000       11.7871277200        4.2878709920
  C         3.3412329000        2.8334722800       20.0799709920
  C         7.1685329000        4.4768277200       11.5042290080
  C         4.3133671000       10.1437722800       27.2963290080
  C         5.7554937400        9.6510580600        2.4300883480
  C         5.7264062600        4.9695419400       18.2221883480
  C         1.8991062600        2.3407580600       13.3620116520
  C         1.9281937400       12.2798419400       29.1541116520
  C         5.6016362800        8.4740997600        3.1401011640
  C         5.8802637200        6.1465002400       18.9322011640
  C         2.0529637200        1.1637997600       12.6519988360
  C         1.7743362800       13.4568002400       28.4440988360
  C         3.2187593000        3.4182962800        2.7007649420
  C         0.6085407000       11.2023037200       18.4928649420
  C         4.4358407000       10.7285962800       13.0913350580
  C         7.0460593000        3.8920037200       28.8834350580
  C         6.9075110400        9.8791394200        1.6976507500
  C         4.5743889600        4.7414605800       17.4897507500
  C         0.7470889600        2.5688394200       14.0944492500
  C         3.0802110400       12.0517605800       29.8865492500
  C         2.9585029000        2.2851997800        3.4537322700
  C         0.8687971000       12.3354002200       19.2458322700
  C         4.6960971000        9.5954997800       12.3383677300
  C         6.7858029000        5.0251002200       28.1304677300
  C         0.0987443400        7.7240629800        2.3669199480
  C         3.7285556600        6.8965370200       18.1590199480
  C         7.5558556600        0.4137629800       13.4251800520
  C         3.9260443400       14.2068370200       29.2172800520
  C         6.3602071400       13.3763869400        3.9126506960
  C         5.1216928600        1.2442130600       19.7047506960
  C         1.2943928600        6.0660869400       11.8794493040
  C         2.5329071400        8.5545130600       27.6715493040
  C         3.3565421000        1.0424487800        2.9891286880
  C         0.4707579000       13.5781512200       18.7812286880
  C         4.2980579000        8.3527487800       12.8029713120
  C         7.1838421000        6.2678512200       28.5950713120
  C         6.5959688200        7.5076781000        3.1069377540
  C         4.8859311800        7.1129219000       18.8990377540
  C         1.0586311800        0.1973781000       12.6851622460
  C         2.7686688200       14.4232219000       28.4772622460
  C         0.2342307600        8.9024833400        1.6692249700
  C         3.5930692400        5.7181166600       17.4613249700
  C         7.4203692400        1.5921833400       14.1228750300
  C         4.0615307600       13.0284166600       29.9149750300
  C         3.8648075400        3.2808626400        1.4705603520
  C         7.6170924600       11.3397373600       17.2626603520
  C         3.7897924600       10.5911626400       14.3215396480
  C         0.0375075400        4.0294373600       30.1136396480
  C         1.0915459600       12.2213595400        3.1299942200
  C         2.7357540400        2.3992404600       18.9220942200
  C         6.5630540400        4.9110595400       12.6621057800
  C         4.9188459600        9.7095404600       28.4542057800
  C         4.2643776600        2.0615046000        1.0148003460
  C         7.2175223400       12.5590954000       16.8069003460
  C         3.3902223400        9.3718046000       14.7772996540
  C         0.4370776600        5.2487954000       30.5693996540
  C         6.9281784600       12.3617173000        4.6744616000
  C         4.5537215400        2.2588827000       20.4665616000
  C         0.7264215400        5.0514173000       11.1176384000
  C         3.1008784600        9.5691827000       26.9097384000
  C         6.9350676000        4.9563834000        3.2610686500
  C         4.5468324000        9.6642166000       19.0531686500
  C         0.7195324000       12.2666834000       12.5310313500
  C         3.1077676000        2.3539166000       28.3231313500
  C         4.0156031600        0.9401045800        1.7671359900
  C         7.4662968400       13.6804954200       17.5592359900
  C         3.6389968400        8.2504045800       14.0249640100
  C         0.1883031600        6.3701954200       29.8170640100
  C         1.0662857800       10.6423347400        5.0983215640
  C         2.7610142200        3.9782652600       20.8904215640
  C         6.5883142200        3.3320347400       10.6937784360
  C         4.8935857800       11.2885652600       26.4858784360
  C         0.8886990600        1.6433554400        4.7780577760
  C         2.9386009400       12.9772445600       20.5701577760
  C         6.7659009400        8.9536554400       11.0140422240
  C         4.7159990600        5.6669445600       26.8061422240
  C         2.4127299200       10.1174552000        4.6261377740
  C         1.4145700800        4.5031448000       20.4182377740
  C         5.2418700800        2.8071552000       11.1659622260
  C         6.2400299200       11.8134448000       26.9580622260
 Br         1.2639275520       13.6812264500        0.7055910280
 Br         2.5633724480        0.9393735500       16.4976910280
 Br         6.3906724480        6.3709264500       15.0865089720
 Br         5.0912275520        8.2496735500       30.8786089720
 Br         1.8240146340        9.1774968260        0.6740068280
 Br         2.0032853660        5.4431031740       16.4661068280
 Br         5.8305853660        1.8671968260       15.1180931720
 Br         5.6513146340       12.7534031740       30.9101931720
 Br         4.1833154460        4.8416116900        0.4330193820
 Br         7.2985845540        9.7789883100       16.2251193820
 Br         3.4712845540       12.1519116900       15.3590806180
 Br         0.3560154460        2.4686883100       31.1511806180
  N         7.1348526600        6.4023607400        5.2335019400
  N         4.3470473400        8.2182392600       21.0256019400
  N         0.5197473400       13.7126607400       10.5585980600
  N         3.3075526600        0.9079392600       26.3506980600
  N         3.0136160200        2.0088704400        5.9251959200
  N         0.8136839800       12.6117295600       21.7172959200
  N         4.6409839800        9.3191704400        9.8669040800
  N         6.8409160200        5.3014295600       25.6590040800
  N         1.2369833600       11.0721803800        6.5275066140
  N         2.5903166400        3.5484196200       22.3196066140
  N         6.4176166400        3.7618803800        9.2645933860
  N         5.0642833600       10.8587196200       25.0566933860
 Cl         2.6063913000        6.5098221500        4.5970803100
 Cl         1.2209087000        8.1107778500       20.3891803100
 Cl         5.0482087000       13.8201221500       11.1950196900
 Cl         6.4336913000        0.8004778500       26.9871196900
 Cl         5.0100887920        4.4067950460        6.4975016240
 Cl         6.4718112080       10.2138049540       22.2896016240
 Cl         2.6445112080       11.7170950460        9.2945983760
 Cl         1.1827887920        2.9035049540       25.0866983760
 Cl         1.3309818480        4.4696636260        7.4226028420
 Cl         2.4963181520       10.1509363740       23.2147028420
 Cl         6.3236181520       11.7799636260        8.3694971580
 Cl         5.1582818480        2.8406363740       24.1615971580
 Cl         4.1651740440        6.0890412820        9.7074038700
 Cl         7.3167259560        8.5315587180       25.4995038700
 Cl         3.4894259560       13.3993412820        6.0846961300
 Cl         0.3378740440        1.2212587180       21.8767961300
 Cl         5.0887780800        8.2618086480        6.8057634160
 Cl         6.3931219200        6.3587913520       22.5978634160
 Cl         2.5658219200        0.9515086480        8.9863365840
 Cl         1.2614780800       13.6690913520       24.7784365840
 Cl         1.4781032600        8.1775939920        7.8925757380
 Cl         2.3491967400        6.4430060080       23.6846757380
 Cl         6.1764967400        0.8672939920        7.8995242620
 Cl         5.3054032600       13.7533060080       23.6916242620
     280
 i =       15, E =     -1636.7579506809
 Eu         3.2464689520        6.3516272580        7.1879322360
 Eu         0.5808310480        8.2689727420       22.9800322360
 Eu         4.4081310480       13.6619272580        8.6041677640
 Eu         7.0737689520        0.9586727420       24.3962677640
  H         0.5121341182        6.5548933926        5.0959487522
  H         3.3153793897        8.0659155496       20.8877154078
  H         7.1425624157       13.8648451757       10.6963694779
  H         4.3393140314        0.7553635563       26.4881941859
  H         7.0117523298        5.5548991023        5.8157221624
  H         4.4700115038        9.0657496408       21.6078489921
  H         0.6436494749       12.8652922349        9.9763943331
  H         3.1844972898        1.7551752981       25.7681432201
  H         6.7128536410        7.1840551181        5.7836236348
  H         4.7689470194        7.4363812241       21.5756247143
  H         0.9416817981       14.4949156473       10.0091855403
  H         2.8854591670        0.1263184048       25.8007044031
  H         3.2963447250        1.0077620930        5.8639964712
  H         0.5316552208       13.6131563108       21.6560938113
  H         4.3587842508        8.3178004139        9.9279288948
  H         7.1224870716        6.3029851100       25.7200407629
  H         2.4864113349        2.1013154447        6.8145358612
  H         1.3402346736       12.5190213434       22.6069110783
  H         5.1682505476        9.4118629056        8.9776804242
  H         6.3138244944        5.2082103166       24.7696414245
  H         3.8555708663        2.6171630600        6.0338977969
  H        -0.0287565073       12.0040602626       21.8252520694
  H         3.7986755563        9.9269551530        9.7579643505
  H         7.6836589252        4.6940839450       25.5507354065
  H         6.5160449849       14.5747243001        2.1356300741
  H         4.9657667221        0.0457624194       17.9277753793
  H         1.1386428106        7.2642971760       13.6565138143
  H         2.6885101663        7.3564121032       29.4485581536
  H         1.9537441358       11.8243876619        6.5931470343
  H         1.8729816685        2.7967835965       22.3853067700
  H         5.6985445081        4.5117574489        9.1980432310
  H         5.7813328911       10.1069514713       24.9907371812
  H         1.5470459346       10.2570863963        7.1021426754
  H         2.2821045957        4.3638991280       22.8946479573
  H         6.1111024702        2.9455769279        8.6894425944
  H         5.3729719954       11.6738494210       24.4812312195
  H         0.3598245790       11.4174773017        6.9737118482
  H         3.4673875047        3.2026319665       22.7654607244
  H         7.2938359510        4.1103776741        8.8194894718
  H         4.1872433774       10.5126907492       24.6109304306
  H         1.9766938271        3.5014313715        4.9286654616
  H         1.8507468772       11.1191877848       20.7206811532
  H         5.6779664658       10.8117137697       10.8634199612
  H         5.8040386822        3.8088512396       26.6556265805
  H         5.3603173663        6.1264909062        4.1722826805
  H         6.1215210178        8.4941131234       19.9645388183
  H         2.2942434323       13.4368213676       11.6197263940
  H         1.5330590555        1.1836873125       27.4117356830
  H         4.9741289007       10.4085918142        2.4402310172
  H         6.5077415319        4.2119808621       18.2323957329
  H         2.6804406535        3.0983207329       13.3518036042
  H         1.1468431180       11.5222982646       29.1439250564
  H         4.6971754612        8.2877584291        3.7172025868
  H         6.7845539747        6.3325859311       19.5096591441
  H         2.9571856903        0.9777576858       12.0744799333
  H         0.8700135636       13.6428608320       27.8667221536
  H         2.9331593235        4.4030419851        3.0664198543
  H         0.8945073563       10.2175838310       18.8583697488
  H         4.7216110434       11.7133796542       12.7259086458
  H         6.7602215064        2.9072811123       28.5178878702
  H         7.0326980039       10.7976468822        1.1326551508
  H         4.4492031121        3.8229491276       16.9247620668
  H         0.6218967458        3.4873533133       14.6594329652
  H         3.2053960010       11.1332565201       30.4515492466
  H         0.8946990839        6.9853539577        2.3433006686
  H         2.9324134987        7.6350821173       18.1359762932
  H         6.7596864947       14.2958627224       13.4482733785
  H         4.7222403198        0.3247086457       29.2403166262
  H         5.4214988553       13.8211916728        4.2362208491
  H         6.0600356358        0.7990184172       20.0285753237
  H         2.2319989357        6.5118426596       11.5549013726
  H         1.5945136424        8.1092845903       27.3479176408
  H         3.1409157674        0.1414544356        3.5624855859
  H         0.6866187457       14.4791208515       19.3545036514
  H         4.5141836669        7.4519503797       12.2296257186
  H         6.9680613223        7.1687549913       28.0216342545
  H         2.0200255040       11.7778282971        2.7843181624
  H         1.8072542810        2.8427405725       18.5764391353
  H         5.6345461738        4.4675648133       13.0077455087
  H         5.8473187822       10.1530754765       28.7998913787
  H         4.7803089929        1.9767068077        0.0604115915
  H         6.7015777479       12.6438968740       15.8525178814
  H         2.8743603680        9.2869936474       15.7317211639
  H         0.9529748148        5.3335723506       31.5238057772
  H         6.4070625310       12.0243015049        5.5704875126
  H         5.0749773175        2.5963977385       21.3624716629
  H         1.2476059083        4.7140622669       10.2216288214
  H         2.5797222881        9.9066801046       26.0137412866
  H         0.3703282989        4.9753763505        3.1322185527
  H         3.4569073882        9.6450604253       18.9247016007
  H         7.2842607504       12.2858512612       12.6598646912
  H         4.1976605336        2.3348109087       28.4518065659
  H         6.4685934763        4.8275556969        2.2759632279
  H         5.0130942422        9.7929235851       18.0679526656
  H         1.1859900468       12.1378167602       13.5161358590
  H         2.6413601180        2.4827747411       29.3082601963
  H         6.6732569702        4.0905079774        3.8834287057
  H         4.8087094399       10.5301645244       19.6753953020
  H         0.9812333610       11.4008259196       11.9085991753
  H         2.8461152587        3.2199150104       27.7008692776
  H         4.3132909773       -0.0355784649        1.3901746807
  H         7.1686961975       14.6561590696       17.1822089638
  H         3.3414354628        7.2749135695       14.4022765509
  H         0.4859643020        7.3457160723       30.1941918742
  H         0.3296213701        9.8266785498        5.1231042883
  H         3.4977486529        4.7938570971       20.9152852903
  H         7.3250739964        2.5164513929       10.6689876734
  H         4.1568441863       12.1041809364       26.4610705572
  H         1.0781182200        0.5648172484        4.7021871373
  H         2.7491981676       14.0558295157       20.4949360995
  H         6.5765465662        7.8751030246       11.0897725838
  H         4.9055403982        6.7455219143       26.8812503244
  H         0.2633899594        1.9287080951        3.9225747569
  H         3.5636615585       12.6922904965       19.7143472183
  H         7.3911026223        9.2389260509       11.8696173289
  H         4.0908852701        5.3821321580       27.6619158047
  H         0.3205004177        1.8241017577        5.7016142352
  H         3.5068839801       12.7956120757       21.4934621504
  H         7.3342718109        9.1345698734       10.0906307361
  H         4.1477532290        5.4854885246       25.8827605075
  H         3.1608737827       10.9204452653        4.6084837005
  H         0.6662178528        3.7003272280       20.4016520701
  H         4.4936991599        3.6101451334       11.1831578091
  H         6.9882952799       11.0105710479       26.9755606878
  H         2.3257117740        9.6796743459        3.6244280111
  H         1.5014212752        4.9398917186       19.4160570021
  H         5.3288138308        2.3697315798       12.1678338610
  H         6.1529794347       12.2510972159       27.9598300893
  H         2.7735012087        9.3292281859        5.2967369472
  H         1.0542732064        5.2922090094       21.0880404457
  H         4.8813028960        2.0186936564       10.4955474154
  H         6.6006947613       12.6018580627       26.2876440765
  C         6.9672169200       13.7959981600        2.7446669800
  C         4.5146830800        0.8246018400       18.5367669800
  C         0.6873830800        6.4856981600       13.0474330200
  C         3.1399169200        8.1349018400       28.8395330200
  C         0.4906598600       13.2170224000        2.3659724220
  C         3.3366401400        1.4035776000       18.1580724220
  C         7.1639401400        5.9067224000       13.4261275780
  C         4.3179598600        8.7138776000       29.2182275780
  C         2.1769682400        2.4372540200        4.7584755720
  C         1.6503317600       12.1833459800       20.5505755720
  C         5.4776317600        9.7475540200       11.0336244280
  C         6.0042682400        4.8730459800       26.8257244280
  C         6.4268021600        6.2342238400        3.9148615900
  C         5.0550978400        8.3863761600       19.7069615900
  C         1.2277978400       13.5445238400       11.8772384100
  C         2.5995021600        1.0760761600       27.6693384100
  C         0.4860671000       11.7871277200        4.2878709920
  C         3.3412329000        2.8334722800       20.0799709920
  C         7.1685329000        4.4768277200       11.5042290080
  C         4.3133671000       10.1437722800       27.2963290080
  C         5.7554937400        9.6510580600        2.4300883480
  C         5.7264062600        4.9695419400       18.2221883480
  C         1.8991062600        2.3407580600       13.3620116520
  C         1.9281937400       12.2798419400       29.1541116520
  C         5.6016362800        8.4740997600        3.1401011640
  C         5.8802637200        6.1465002400       18.9322011640
  C         2.0529637200        1.1637997600       12.6519988360
  C         1.7743362800       13.4568002400       28.4440988360
  C         3.2187593000        3.4182962800        2.7007649420
  C         0.6085407000       11.2023037200       18.4928649420
  C         4.4358407000       10.7285962800       13.0913350580
  C         7.0460593000        3.8920037200       28.8834350580
  C         6.9075110400        9.8791394200        1.6976507500
  C         4.5743889600        4.7414605800       17.4897507500
  C         0.7470889600        2.5688394200       14.0944492500
  C         3.0802110400       12.0517605800       29.8865492500
  C         2.9585029000        2.2851997800        3.4537322700
  C         0.8687971000       12.3354002200       19.2458322700
  C         4.6960971000        9.5954997800       12.3383677300
  C         6.7858029000        5.0251002200       28.1304677300
  C         0.0987443400        7.7240629800        2.3669199480
  C         3.7285556600        6.8965370200       18.1590199480
  C         7.5558556600        0.4137629800       13.4251800520
  C         3.9260443400       14.2068370200       29.2172800520
  C         6.3602071400       13.3763869400        3.9126506960
  C         5.1216928600        1.2442130600       19.7047506960
  C         1.2943928600        6.0660869400       11.8794493040
  C         2.5329071400        8.5545130600       27.6715493040
  C         3.3565421000        1.0424487800        2.9891286880
  C         0.4707579000       13.5781512200       18.7812286880
  C         4.2980579000        8.3527487800       12.8029713120
  C         7.1838421000        6.2678512200       28.5950713120
  C         6.5959688200        7.5076781000        3.1069377540
  C         4.8859311800        7.1129219000       18.8990377540
  C         1.0586311800        0.1973781000       12.6851622460
  C         2.7686688200       14.4232219000       28.4772622460
  C         0.2342307600        8.9024833400        1.6692249700
  C         3.5930692400        5.7181166600       17.4613249700
  C         7.4203692400        1.5921833400       14.1228750300
  C         4.0615307600       13.0284166600       29.9149750300
  C         3.8648075400        3.2808626400        1.4705603520
  C         7.6170924600       11.3397373600       17.2626603520
  C         3.7897924600       10.5911626400       14.3215396480
  C         0.0375075400        4.0294373600       30.1136396480
  C         1.0915459600       12.2213595400        3.1299942200
  C         2.7357540400        2.3992404600       18.9220942200
  C         6.5630540400        4.9110595400       12.6621057800
  C         4.9188459600        9.7095404600       28.4542057800
  C         4.2643776600        2.0615046000        1.0148003460
  C         7.2175223400       12.5590954000       16.8069003460
  C         3.3902223400        9.3718046000       14.7772996540
  C         0.4370776600        5.2487954000       30.5693996540
  C         6.9281784600       12.3617173000        4.6744616000
  C         4.5537215400        2.2588827000       20.4665616000
  C         0.7264215400        5.0514173000       11.1176384000
  C         3.1008784600        9.5691827000       26.9097384000
  C         6.9350676000        4.9563834000        3.2610686500
  C         4.5468324000        9.6642166000       19.0531686500
  C         0.7195324000       12.2666834000       12.5310313500
  C         3.1077676000        2.3539166000       28.3231313500
  C         4.0156031600        0.9401045800        1.7671359900
  C         7.4662968400       13.6804954200       17.5592359900
  C         3.6389968400        8.2504045800       14.0249640100
  C         0.1883031600        6.3701954200       29.8170640100
  C         1.0662857800       10.6423347400        5.0983215640
  C         2.7610142200        3.9782652600       20.8904215640
  C         6.5883142200        3.3320347400       10.6937784360
  C         4.8935857800       11.2885652600       26.4858784360
  C         0.8886990600        1.6433554400        4.7780577760
  C         2.9386009400       12.9772445600       20.5701577760
  C         6.7659009400        8.9536554400       11.0140422240
  C         4.7159990600        5.6669445600       26.8061422240
  C         2.4127299200       10.1174552000        4.6261377740
  C         1.4145700800        4.5031448000       20.4182377740
  C         5.2418700800        2.8071552000       11.1659622260
  C         6.2400299200       11.8134448000       26.9580622260
 Br         1.2639275520       13.6812264500        0.7055910280
 Br         2.5633724480        0.9393735500       16.4976910280
 Br         6.3906724480        6.3709264500       15.0865089720
 Br         5.0912275520        8.2496735500       30.8786089720
 Br         1.8240146340        9.1774968260        0.6740068280
 Br         2.0032853660        5.4431031740       16.4661068280
 Br         5.8305853660        1.8671968260       15.1180931720
 Br         5.6513146340       12.7534031740       30.9101931720
 Br         4.1833154460        4.8416116900        0.4330193820
 Br         7.2985845540        9.7789883100       16.2251193820
 Br         3.4712845540       12.1519116900       15.3590806180
 Br         0.3560154460        2.4686883100       31.1511806180
  N         7.1348526600        6.4023607400        5.2335019400
  N         4.3470473400        8.2182392600       21.0256019400
  N         0.5197473400       13.7126607400       10.5585980600
  N         3.3075526600        0.9079392600       26.3506980600
  N         3.0136160200        2.0088704400        5.9251959200
  N         0.8136839800       12.6117295600       21.7172959200
  N         4.6409839800        9.3191704400        9.8669040800
  N         6.8409160200        5.3014295600       25.6590040800
  N         1.2369833600       11.0721803800        6.5275066140
  N         2.5903166400        3.5484196200       22.3196066140
  N         6.4176166400        3.7618803800        9.2645933860
  N         5.0642833600       10.8587196200       25.0566933860
 Cl         2.6063913000        6.5098221500        4.5970803100
 Cl         1.2209087000        8.1107778500       20.3891803100
 Cl         5.0482087000       13.8201221500       11.1950196900
 Cl         6.4336913000        0.8004778500       26.9871196900
 Cl         5.0100887920        4.4067950460        6.4975016240
 Cl         6.4718112080       10.2138049540       22.2896016240
 Cl         2.6445112080       11.7170950460        9.2945983760
 Cl         1.1827887920        2.9035049540       25.0866983760
 Cl         1.3309818480        4.4696636260        7.4226028420
 Cl         2.4963181520       10.1509363740       23.2147028420
 Cl         6.3236181520       11.7799636260        8.3694971580
 Cl         5.1582818480        2.8406363740       24.1615971580
 Cl         4.1651740440        6.0890412820        9.7074038700
 Cl         7.3167259560        8.5315587180       25.4995038700
 Cl         3.4894259560       13.3993412820        6.0846961300
 Cl         0.3378740440        1.2212587180       21.8767961300
 Cl         5.0887780800        8.2618086480        6.8057634160
 Cl         6.3931219200        6.3587913520       22.5978634160
 Cl         2.5658219200        0.9515086480        8.9863365840
 Cl         1.2614780800       13.6690913520       24.7784365840
 Cl         1.4781032600        8.1775939920        7.8925757380
 Cl         2.3491967400        6.4430060080       23.6846757380
 Cl         6.1764967400        0.8672939920        7.8995242620
 Cl         5.3054032600       13.7533060080       23.6916242620
     280
 i =       16, E =     -1636.7595423915
 Eu         3.2464689520        6.3516272580        7.1879322360
 Eu         0.5808310480        8.2689727420       22.9800322360
 Eu         4.4081310480       13.6619272580        8.6041677640
 Eu         7.0737689520        0.9586727420       24.3962677640
  H         0.5121999329        6.5547979351        5.0959499178
  H         3.3153079672        8.0660048458       20.8877341645
  H         7.1424797870       13.8647333605       10.6963455321
  H         4.3393466228        0.7552673886       26.4881888461
  H         7.0117867361        5.5548700183        5.8157066796
  H         4.4699920865        9.0657510788       21.6078246756
  H         0.6436176755       12.8652942608        9.9764093677
  H         3.1846357316        1.7551445941       25.7681105270
  H         6.7130997034        7.1839947841        5.7838266474
  H         4.7688130616        7.4363950654       21.5756881794
  H         0.9415253958       14.4949007266       10.0091120795
  H         2.8854554813        0.1264596634       25.8005086747
  H         3.2957869097        1.0075861692        5.8645725051
  H         0.5322991107       13.6133533937       21.6567338623
  H         4.3593439989        8.3176116128        9.9273602356
  H         7.1216765541        6.3032627629       25.7191911142
  H         2.4865844224        2.1021958257        6.8145449687
  H         1.3400427164       12.5181025968       22.6069177698
  H         5.1681357100        9.4127576108        8.9777563162
  H         6.3139220346        5.2073373655       24.7697142242
  H         3.8558276641        2.6168162148        6.0335389057
  H        -0.0291879838       12.0046110172       21.8248151944
  H         3.7983307211        9.9265014415        9.7582579725
  H         7.6841254770        4.6947162542       25.5511648358
  H         6.5161502662       14.5748452964        2.1357379146
  H         4.9656774002        0.0456627405       17.9278798140
  H         1.1385632035        7.2643913876       13.6564101917
  H         2.6886065368        7.3562993188       29.4484517100
  H         1.9536267115       11.8244438944        6.5931953949
  H         1.8732654576        2.7966248118       22.3855254117
  H         5.6986790083        4.5118347064        9.1979962762
  H         5.7813761714       10.1070641984       24.9905696819
  H         1.5474625517       10.2571884492        7.1020110891
  H         2.2813639464        4.3639442259       22.8941880563
  H         6.1107907116        2.9456172146        8.6895361650
  H         5.3729988443       11.6738107421       24.4811967155
  H         0.3599238234       11.4172241910        6.9739793671
  H         3.4672862975        3.2027209158       22.7656616777
  H         7.2937539537        4.1101101336        8.8193852014
  H         4.1873550776       10.5127447676       24.6107979916
  H         1.9768864592        3.5014808584        4.9287313976
  H         1.8505833393       11.1191511374       20.7208053385
  H         5.6777974491       10.8117531934       10.8633004601
  H         5.8041925852        3.8088160459       26.6555015179
  H         5.3603406627        6.1265459042        4.1724497643
  H         6.1215000245        8.4940403044       19.9646899028
  H         2.2942242212       13.4368962468       11.6195730407
  H         1.5330878050        1.1836237694       27.4115963997
  H         4.9742734243       10.4087022682        2.4404047521
  H         6.5075982154        4.2118724593       18.2325624358
  H         2.6802998464        3.0984271574       13.3516397158
  H         1.1469826355       11.5221933638       29.1437625648
  H         4.6971851989        8.2877606072        3.7171637778
  H         6.7845270415        6.3326090838       19.5096351720
  H         2.9571617890        0.9777331086       12.0745079343
  H         0.8700486338       13.6428854262       27.8667332162
  H         2.9333219980        4.4030323755        3.0664701380
  H         0.8943462406       10.2175968596       18.8584326198
  H         4.7214303888       11.7133677494       12.7258340097
  H         6.7603992193        2.9072853482       28.5178382942
  H         7.0326747732       10.7976075994        1.1326272707
  H         4.4492260959        3.8229901066       16.9247322068
  H         0.6219232428        3.4873084267       14.6594699531
  H         3.2053691273       11.1333011010       30.4515868447
  H         0.8947520146        6.9854440504        2.3433778709
  H         2.9323615418        7.6349931372       18.1360479646
  H         6.7596336634       14.2959522930       13.4482022942
  H         4.7223073663        0.3246055089       29.2402148255
  H         5.4215230065       13.8211602701        4.2362359657
  H         6.0601049571        0.7991457409       20.0285073765
  H         2.2319625626        6.5118640338       11.5549143765
  H         1.5945381265        8.1093083358       27.3478962831
  H         3.1409265660        0.1414427066        3.5624117047
  H         0.6865991733       14.4791466025       19.3544151040
  H         4.5141691086        7.4519066955       12.2297389457
  H         6.9680540538        7.1687706991       28.0217225839
  H         2.0198675101       11.7776820238        2.7841521854
  H         1.8074091551        2.8428788031       18.5762710778
  H         5.6347047085        4.4674196124       13.0079141336
  H         5.8471611802       10.1532190188       28.8000590361
  H         4.7805279512        1.9767122203        0.0605604011
  H         6.7013498329       12.6438858471       15.8526706090
  H         2.8741416617        9.2870006839       15.7315724241
  H         0.9531910620        5.3335667091       31.5236584964
  H         6.4070237845       12.0243881803        5.5704643268
  H         5.0749913522        2.5963610248       21.3624367475
  H         1.2476532806        4.7141299439       10.2216677385
  H         2.5796555820        9.9066252219       26.0137919047
  H         0.3702753626        4.9754788460        3.1318559591
  H         3.4569568793        9.6449737188       18.9243524886
  H         7.2843130383       12.2859445759       12.6602402690
  H         4.1976057998        2.3346337650       28.4522017485
  H         6.4682074860        4.8272665895        2.2762009340
  H         5.0134706470        9.7932228422       18.0681889486
  H         1.1863880120       12.1375090305       13.5158889535
  H         2.6410182490        2.4830458142       29.3080460149
  H         6.6735431467        4.0906721430        3.8837754534
  H         4.8084115318       10.5300224274       19.6757167182
  H         0.9809171340       11.4009669693       11.9082704765
  H         2.8464142526        3.2197830228       27.7005603213
  H         4.3132795513       -0.0355465057        1.3901702431
  H         7.1687295933       14.6561435752       17.1822052641
  H         3.3414491546        7.2749374280       14.4022619457
  H         0.4859534003        7.3456862671       30.1941956198
  H         0.3295555346        9.8267151268        5.1232884594
  H         3.4978292848        4.7938072435       20.9154103887
  H         7.3251515518        2.5164939799       10.6688164864
  H         4.1567647863       12.1041266579       26.4609112382
  H         1.0781196984        0.5648751044        4.7012527115
  H         2.7492642437       14.0557895991       20.4941826743
  H         6.5765454453        7.8751613297       11.0907096130
  H         4.9055202273        6.7454729037       26.8820844102
  H         0.2631203515        1.9293474704        3.9229932556
  H         3.5639526965       12.6916881154       19.7147759017
  H         7.3913640834        9.2395633798       11.8692033377
  H         4.0905980533        5.3814810941       27.6614751211
  H         0.3207629159        1.8233608674        5.7018938909
  H         3.5066046319       12.7962444922       21.4937327335
  H         7.3340162841        9.1337829057       10.0903363885
  H         4.1480174198        5.4861854011       25.8824858640
  H         3.1607203535       10.9205737624        4.6079584630
  H         0.6663516970        3.7002127617       20.4011632521
  H         4.4938527765        3.6102748961       11.1836856043
  H         6.9881270248       11.0104288614       26.9760667868
  H         2.3256487095        9.6790166730        3.6247392324
  H         1.5014420831        4.9404831294       19.4163409736
  H         5.3288772172        2.3690723365       12.1675194430
  H         6.1529373260       12.2516891698       27.9595494222
  H         2.7737695706        9.3297429276        5.2972182387
  H         1.0540432597        5.2917617100       21.0884639239
  H         4.8810411152        2.0191742927       10.4951005259
  H         6.6009237064       12.6014447476       26.2872580989
  C         6.9672169200       13.7959981600        2.7446669800
  C         4.5146830800        0.8246018400       18.5367669800
  C         0.6873830800        6.4856981600       13.0474330200
  C         3.1399169200        8.1349018400       28.8395330200
  C         0.4906598600       13.2170224000        2.3659724220
  C         3.3366401400        1.4035776000       18.1580724220
  C         7.1639401400        5.9067224000       13.4261275780
  C         4.3179598600        8.7138776000       29.2182275780
  C         2.1769682400        2.4372540200        4.7584755720
  C         1.6503317600       12.1833459800       20.5505755720
  C         5.4776317600        9.7475540200       11.0336244280
  C         6.0042682400        4.8730459800       26.8257244280
  C         6.4268021600        6.2342238400        3.9148615900
  C         5.0550978400        8.3863761600       19.7069615900
  C         1.2277978400       13.5445238400       11.8772384100
  C         2.5995021600        1.0760761600       27.6693384100
  C         0.4860671000       11.7871277200        4.2878709920
  C         3.3412329000        2.8334722800       20.0799709920
  C         7.1685329000        4.4768277200       11.5042290080
  C         4.3133671000       10.1437722800       27.2963290080
  C         5.7554937400        9.6510580600        2.4300883480
  C         5.7264062600        4.9695419400       18.2221883480
  C         1.8991062600        2.3407580600       13.3620116520
  C         1.9281937400       12.2798419400       29.1541116520
  C         5.6016362800        8.4740997600        3.1401011640
  C         5.8802637200        6.1465002400       18.9322011640
  C         2.0529637200        1.1637997600       12.6519988360
  C         1.7743362800       13.4568002400       28.4440988360
  C         3.2187593000        3.4182962800        2.7007649420
  C         0.6085407000       11.2023037200       18.4928649420
  C         4.4358407000       10.7285962800       13.0913350580
  C         7.0460593000        3.8920037200       28.8834350580
  C         6.9075110400        9.8791394200        1.6976507500
  C         4.5743889600        4.7414605800       17.4897507500
  C         0.7470889600        2.5688394200       14.0944492500
  C         3.0802110400       12.0517605800       29.8865492500
  C         2.9585029000        2.2851997800        3.4537322700
  C         0.8687971000       12.3354002200       19.2458322700
  C         4.6960971000        9.5954997800       12.3383677300
  C         6.7858029000        5.0251002200       28.1304677300
  C         0.0987443400        7.7240629800        2.3669199480
  C         3.7285556600        6.8965370200       18.1590199480
  C         7.5558556600        0.4137629800       13.4251800520
  C         3.9260443400       14.2068370200       29.2172800520
  C         6.3602071400       13.3763869400        3.9126506960
  C         5.1216928600        1.2442130600       19.7047506960
  C         1.2943928600        6.0660869400       11.8794493040
  C         2.5329071400        8.5545130600       27.6715493040
  C         3.3565421000        1.0424487800        2.9891286880
  C         0.4707579000       13.5781512200       18.7812286880
  C         4.2980579000        8.3527487800       12.8029713120
  C         7.1838421000        6.2678512200       28.5950713120
  C         6.5959688200        7.5076781000        3.1069377540
  C         4.8859311800        7.1129219000       18.8990377540
  C         1.0586311800        0.1973781000       12.6851622460
  C         2.7686688200       14.4232219000       28.4772622460
  C         0.2342307600        8.9024833400        1.6692249700
  C         3.5930692400        5.7181166600       17.4613249700
  C         7.4203692400        1.5921833400       14.1228750300
  C         4.0615307600       13.0284166600       29.9149750300
  C         3.8648075400        3.2808626400        1.4705603520
  C         7.6170924600       11.3397373600       17.2626603520
  C         3.7897924600       10.5911626400       14.3215396480
  C         0.0375075400        4.0294373600       30.1136396480
  C         1.0915459600       12.2213595400        3.1299942200
  C         2.7357540400        2.3992404600       18.9220942200
  C         6.5630540400        4.9110595400       12.6621057800
  C         4.9188459600        9.7095404600       28.4542057800
  C         4.2643776600        2.0615046000        1.0148003460
  C         7.2175223400       12.5590954000       16.8069003460
  C         3.3902223400        9.3718046000       14.7772996540
  C         0.4370776600        5.2487954000       30.5693996540
  C         6.9281784600       12.3617173000        4.6744616000
  C         4.5537215400        2.2588827000       20.4665616000
  C         0.7264215400        5.0514173000       11.1176384000
  C         3.1008784600        9.5691827000       26.9097384000
  C         6.9350676000        4.9563834000        3.2610686500
  C         4.5468324000        9.6642166000       19.0531686500
  C         0.7195324000       12.2666834000       12.5310313500
  C         3.1077676000        2.3539166000       28.3231313500
  C         4.0156031600        0.9401045800        1.7671359900
  C         7.4662968400       13.6804954200       17.5592359900
  C         3.6389968400        8.2504045800       14.0249640100
  C         0.1883031600        6.3701954200       29.8170640100
  C         1.0662857800       10.6423347400        5.0983215640
  C         2.7610142200        3.9782652600       20.8904215640
  C         6.5883142200        3.3320347400       10.6937784360
  C         4.8935857800       11.2885652600       26.4858784360
  C         0.8886990600        1.6433554400        4.7780577760
  C         2.9386009400       12.9772445600       20.5701577760
  C         6.7659009400        8.9536554400       11.0140422240
  C         4.7159990600        5.6669445600       26.8061422240
  C         2.4127299200       10.1174552000        4.6261377740
  C         1.4145700800        4.5031448000       20.4182377740
  C         5.2418700800        2.8071552000       11.1659622260
  C         6.2400299200       11.8134448000       26.9580622260
 Br         1.2639275520       13.6812264500        0.7055910280
 Br         2.5633724480        0.9393735500       16.4976910280
 Br         6.3906724480        6.3709264500       15.0865089720
 Br         5.0912275520        8.2496735500       30.8786089720
 Br         1.8240146340        9.1774968260        0.6740068280
 Br         2.0032853660        5.4431031740       16.4661068280
 Br         5.8305853660        1.8671968260       15.1180931720
 Br         5.6513146340       12.7534031740       30.9101931720
 Br         4.1833154460        4.8416116900        0.4330193820
 Br         7.2985845540        9.7789883100       16.2251193820
 Br         3.4712845540       12.1519116900       15.3590806180
 Br         0.3560154460        2.4686883100       31.1511806180
  N         7.1348526600        6.4023607400        5.2335019400
  N         4.3470473400        8.2182392600       21.0256019400
  N         0.5197473400       13.7126607400       10.5585980600
  N         3.3075526600        0.9079392600       26.3506980600
  N         3.0136160200        2.0088704400        5.9251959200
  N         0.8136839800       12.6117295600       21.7172959200
  N         4.6409839800        9.3191704400        9.8669040800
  N         6.8409160200        5.3014295600       25.6590040800
  N         1.2369833600       11.0721803800        6.5275066140
  N         2.5903166400        3.5484196200       22.3196066140
  N         6.4176166400        3.7618803800        9.2645933860
  N         5.0642833600       10.8587196200       25.0566933860
 Cl         2.6063913000        6.5098221500        4.5970803100
 Cl         1.2209087000        8.1107778500       20.3891803100
 Cl         5.0482087000       13.8201221500       11.1950196900
 Cl         6.4336913000        0.8004778500       26.9871196900
 Cl         5.0100887920        4.4067950460        6.4975016240
 Cl         6.4718112080       10.2138049540       22.2896016240
 Cl         2.6445112080       11.7170950460        9.2945983760
 Cl         1.1827887920        2.9035049540       25.0866983760
 Cl         1.3309818480        4.4696636260        7.4226028420
 Cl         2.4963181520       10.1509363740       23.2147028420
 Cl         6.3236181520       11.7799636260        8.3694971580
 Cl         5.1582818480        2.8406363740       24.1615971580
 Cl         4.1651740440        6.0890412820        9.7074038700
 Cl         7.3167259560        8.5315587180       25.4995038700
 Cl         3.4894259560       13.3993412820        6.0846961300
 Cl         0.3378740440        1.2212587180       21.8767961300
 Cl         5.0887780800        8.2618086480        6.8057634160
 Cl         6.3931219200        6.3587913520       22.5978634160
 Cl         2.5658219200        0.9515086480        8.9863365840
 Cl         1.2614780800       13.6690913520       24.7784365840
 Cl         1.4781032600        8.1775939920        7.8925757380
 Cl         2.3491967400        6.4430060080       23.6846757380
 Cl         6.1764967400        0.8672939920        7.8995242620
 Cl         5.3054032600       13.7533060080       23.6916242620
     280
 i =       17, E =     -1636.7586263183
 Eu         3.2464689520        6.3516272580        7.1879322360
 Eu         0.5808310480        8.2689727420       22.9800322360
 Eu         4.4081310480       13.6619272580        8.6041677640
 Eu         7.0737689520        0.9586727420       24.3962677640
  H         0.5121837327        6.5545782150        5.0959083633
  H         3.3153234976        8.0661798210       20.8877062908
  H         7.1424893668       13.8645450270       10.6963674846
  H         4.3393047496        0.7552373827       26.4882622228
  H         7.0117491285        5.5548830221        5.8157563198
  H         4.4701002798        9.0656906825       21.6079004279
  H         0.6437150113       12.8653603702        9.9763217475
  H         3.1846725066        1.7552607468       25.7682530759
  H         6.7133540016        7.1840603101        5.7838045918
  H         4.7686014534        7.4363112947       21.5756155100
  H         0.9413021944       14.4949851663       10.0091691254
  H         2.8856594710        0.1263785818       25.8005566072
  H         3.2953935690        1.0074694437        5.8650135178
  H         0.5328232145       13.6134966958       21.6571878813
  H         4.3598213216        8.3174564263        9.9269287421
  H         7.1210309742        6.3034494628       25.7186615451
  H         2.4867297250        2.1028695588        6.8145705120
  H         1.3398793886       12.5174119990       22.6069136751
  H         5.1680027826        9.4134313723        8.9777709790
  H         6.3141343076        5.2064653816       24.7696825175
  H         3.8560487172        2.6164775145        6.0332019887
  H        -0.0295434462       12.0051318391       21.8244206537
  H         3.7980985772        9.9261436676        9.7585482305
  H         7.6843923864        4.6951205755       25.5516769035
  H         6.5161818249       14.5749177377        2.1357998349
  H         4.9656338856        0.0455927642       17.9279233799
  H         1.1385195335        7.2644627016       13.6563659306
  H         2.6886526847        7.3562163946       29.4483958800
  H         1.9533510283       11.8246679340        6.5931368656
  H         1.8735899877        2.7963701365       22.3857106914
  H         5.6989318974        4.5120432651        9.1980146326
  H         5.7813628862       10.1071006019       24.9904527374
  H         1.5478120116       10.2573091812        7.1019026702
  H         2.2807495236        4.3638532096       22.8939279554
  H         6.1104501685        2.9457474087        8.6895909674
  H         5.3734002840       11.6736681704       24.4813140601
  H         0.3599266797       11.4168668677        6.9741783131
  H         3.4672817846        3.2027390809       22.7654435305
  H         7.2937734397        4.1097657932        8.8193288003
  H         4.1874172225       10.5128113590       24.6107068657
  H         1.9769885331        3.5015147975        4.9287826704
  H         1.8504957142       11.1191242033       20.7208619931
  H         5.6777030945       10.8117833451       10.8632330424
  H         5.8043023638        3.8087839608       26.6554303535
  H         5.3603494703        6.1265811098        4.1725248239
  H         6.1214888473        8.4939997837       19.9647729777
  H         2.2942145534       13.4369404186       11.6194889212
  H         1.5330913390        1.1836454009       27.4115662050
  H         4.9743409086       10.4087756310        2.4404889557
  H         6.5075300467        4.2117984785       18.2326398801
  H         2.6802354190        3.0984976136       13.3515607258
  H         1.1470490357       11.5221203514       29.1436888659
  H         4.6971780762        8.2877468919        3.7171504201
  H         6.7845272637        6.3326378360       19.5096257287
  H         2.9571631148        0.9777052051       12.0745170615
  H         0.8700490113       13.6429457405       27.8667427416
  H         2.9334182784        4.4030348393        3.0665267943
  H         0.8942434623       10.2175899761       18.8584826288
  H         4.7213117910       11.7133771248       12.7257728407
  H         6.7605135057        2.9072758831       28.5177786604
  H         7.0326476487       10.7975882632        1.1325740314
  H         4.4492551517        3.8230097268       16.9246776967
  H         0.6219530169        3.4872856854       14.6595291872
  H         3.2053376499       11.1333243074       30.4516478834
  H         0.8948162707        6.9855027316        2.3434448649
  H         2.9322977526        7.6349365490       18.1361136785
  H         6.7595678011       14.2960103611       13.4481355207
  H         4.7223629898        0.3245566075       29.2401308098
  H         5.4215088175       13.8211243718        4.2362502004
  H         6.0601187384        0.7991831336       20.0284965169
  H         2.2319634120        6.5118564330       11.5548935578
  H         1.5945226639        8.1093353629       27.3478868101
  H         3.1408736497        0.1414216457        3.5623461377
  H         0.6866920110       14.4791366004       19.3543734069
  H         4.5142449273        7.4518873838       12.2298131835
  H         6.9679887184        7.1687933485       28.0217986361
  H         2.0197304526       11.7775105498        2.7839913146
  H         1.8075461432        2.8430452070       18.5761044276
  H         5.6348428939        4.4672458084       13.0080748579
  H         5.8470256054       10.1533871284       28.8002189450
  H         4.7806672098        1.9767212369        0.0606320345
  H         6.7012016343       12.6438774357       15.8527468193
  H         2.8739983133        9.2870095934       15.7314987045
  H         0.9533330896        5.3335615184       31.5235850662
  H         6.4069865353       12.0244294579        5.5704550582
  H         5.0750210097        2.5963446060       21.3624209901
  H         1.2476948928        4.7141550752       10.2216869711
  H         2.5795934500        9.9065593381       26.0138100164
  H         0.3702523198        4.9755712081        3.1315090478
  H         3.4569795618        9.6448777316       18.9240042280
  H         7.2843383794       12.2860507864       12.6606127035
  H         4.1975811020        2.3344477229       28.4525843554
  H         6.4678412037        4.8270085673        2.2763944922
  H         5.0138201256        9.7934794942       18.0683753130
  H         1.1867566553       12.1372418374       13.5156928114
  H         2.6406893348        2.4832556816       29.3078777416
  H         6.6738451692        4.0907531104        3.8840541847
  H         4.8081117257       10.5299486327       19.6759875298
  H         0.9806060861       11.4010467130       11.9079877691
  H         2.8466273452        3.2196202151       27.7002082748
  H         4.3132604830       -0.0355457665        1.3901553003
  H         7.1687183140       14.6561064207       17.1821495188
  H         3.3414675980        7.2749389987       14.4022788513
  H         0.4859326280        7.3456867046       30.1942124593
  H         0.3295125660        9.8267354601        5.1234200387
  H         3.4978724627        4.7937904372       20.9155258067
  H         7.3252055232        2.5165220414       10.6686888507
  H         4.1567826588       12.1041456322       26.4608411939
  H         1.0781147607        0.5649108427        4.7003538856
  H         2.7493133622       14.0557647560       20.4934242514
  H         6.5765395318        7.8751997014       11.0916322588
  H         4.9054785539        6.7454481981       26.8829017602
  H         0.2628060196        1.9299678166        3.9234068561
  H         3.5642520197       12.6911219478       19.7151632638
  H         7.3916720278        9.2401943629       11.8687931461
  H         4.0902580129        5.3808461385       27.6610345453
  H         0.3210330705        1.8226606590        5.7022114091
  H         3.5064610651       12.7969960606       21.4940156269
  H         7.3337454290        9.1330731615       10.0900122991
  H         4.1481857063        5.4869246020       25.8822187616
  H         3.1605809755       10.9207169965        4.6074000910
  H         0.6664588367        3.7000972754       20.4006413236
  H         4.4939821490        3.6104077491       11.1842391508
  H         6.9879565447       11.0102580542       26.9765858414
  H         2.3255719517        9.6783753742        3.6250111886
  H         1.5015178020        4.9410479628       19.4165809289
  H         5.3289626014        2.3684516128       12.1672557916
  H         6.1528665973       12.2522281168       27.9593236638
  H         2.7740589004        9.3301862991        5.2976406212
  H         1.0537729198        5.2913788350       21.0888303425
  H         4.8807560154        2.0196005597       10.4946921616
  H         6.6011110965       12.6010423429       26.2868294916
  C         6.9672169200       13.7959981600        2.7446669800
  C         4.5146830800        0.8246018400       18.5367669800
  C         0.6873830800        6.4856981600       13.0474330200
  C         3.1399169200        8.1349018400       28.8395330200
  C         0.4906598600       13.2170224000        2.3659724220
  C         3.3366401400        1.4035776000       18.1580724220
  C         7.1639401400        5.9067224000       13.4261275780
  C         4.3179598600        8.7138776000       29.2182275780
  C         2.1769682400        2.4372540200        4.7584755720
  C         1.6503317600       12.1833459800       20.5505755720
  C         5.4776317600        9.7475540200       11.0336244280
  C         6.0042682400        4.8730459800       26.8257244280
  C         6.4268021600        6.2342238400        3.9148615900
  C         5.0550978400        8.3863761600       19.7069615900
  C         1.2277978400       13.5445238400       11.8772384100
  C         2.5995021600        1.0760761600       27.6693384100
  C         0.4860671000       11.7871277200        4.2878709920
  C         3.3412329000        2.8334722800       20.0799709920
  C         7.1685329000        4.4768277200       11.5042290080
  C         4.3133671000       10.1437722800       27.2963290080
  C         5.7554937400        9.6510580600        2.4300883480
  C         5.7264062600        4.9695419400       18.2221883480
  C         1.8991062600        2.3407580600       13.3620116520
  C         1.9281937400       12.2798419400       29.1541116520
  C         5.6016362800        8.4740997600        3.1401011640
  C         5.8802637200        6.1465002400       18.9322011640
  C         2.0529637200        1.1637997600       12.6519988360
  C         1.7743362800       13.4568002400       28.4440988360
  C         3.2187593000        3.4182962800        2.7007649420
  C         0.6085407000       11.2023037200       18.4928649420
  C         4.4358407000       10.7285962800       13.0913350580
  C         7.0460593000        3.8920037200       28.8834350580
  C         6.9075110400        9.8791394200        1.6976507500
  C         4.5743889600        4.7414605800       17.4897507500
  C         0.7470889600        2.5688394200       14.0944492500
  C         3.0802110400       12.0517605800       29.8865492500
  C         2.9585029000        2.2851997800        3.4537322700
  C         0.8687971000       12.3354002200       19.2458322700
  C         4.6960971000        9.5954997800       12.3383677300
  C         6.7858029000        5.0251002200       28.1304677300
  C         0.0987443400        7.7240629800        2.3669199480
  C         3.7285556600        6.8965370200       18.1590199480
  C         7.5558556600        0.4137629800       13.4251800520
  C         3.9260443400       14.2068370200       29.2172800520
  C         6.3602071400       13.3763869400        3.9126506960
  C         5.1216928600        1.2442130600       19.7047506960
  C         1.2943928600        6.0660869400       11.8794493040
  C         2.5329071400        8.5545130600       27.6715493040
  C         3.3565421000        1.0424487800        2.9891286880
  C         0.4707579000       13.5781512200       18.7812286880
  C         4.2980579000        8.3527487800       12.8029713120
  C         7.1838421000        6.2678512200       28.5950713120
  C         6.5959688200        7.5076781000        3.1069377540
  C         4.8859311800        7.1129219000       18.8990377540
  C         1.0586311800        0.1973781000       12.6851622460
  C         2.7686688200       14.4232219000       28.4772622460
  C         0.2342307600        8.9024833400        1.6692249700
  C         3.5930692400        5.7181166600       17.4613249700
  C         7.4203692400        1.5921833400       14.1228750300
  C         4.0615307600       13.0284166600       29.9149750300
  C         3.8648075400        3.2808626400        1.4705603520
  C         7.6170924600       11.3397373600       17.2626603520
  C         3.7897924600       10.5911626400       14.3215396480
  C         0.0375075400        4.0294373600       30.1136396480
  C         1.0915459600       12.2213595400        3.1299942200
  C         2.7357540400        2.3992404600       18.9220942200
  C         6.5630540400        4.9110595400       12.6621057800
  C         4.9188459600        9.7095404600       28.4542057800
  C         4.2643776600        2.0615046000        1.0148003460
  C         7.2175223400       12.5590954000       16.8069003460
  C         3.3902223400        9.3718046000       14.7772996540
  C         0.4370776600        5.2487954000       30.5693996540
  C         6.9281784600       12.3617173000        4.6744616000
  C         4.5537215400        2.2588827000       20.4665616000
  C         0.7264215400        5.0514173000       11.1176384000
  C         3.1008784600        9.5691827000       26.9097384000
  C         6.9350676000        4.9563834000        3.2610686500
  C         4.5468324000        9.6642166000       19.0531686500
  C         0.7195324000       12.2666834000       12.5310313500
  C         3.1077676000        2.3539166000       28.3231313500
  C         4.0156031600        0.9401045800        1.7671359900
  C         7.4662968400       13.6804954200       17.5592359900
  C         3.6389968400        8.2504045800       14.0249640100
  C         0.1883031600        6.3701954200       29.8170640100
  C         1.0662857800       10.6423347400        5.0983215640
  C         2.7610142200        3.9782652600       20.8904215640
  C         6.5883142200        3.3320347400       10.6937784360
  C         4.8935857800       11.2885652600       26.4858784360
  C         0.8886990600        1.6433554400        4.7780577760
  C         2.9386009400       12.9772445600       20.5701577760
  C         6.7659009400        8.9536554400       11.0140422240
  C         4.7159990600        5.6669445600       26.8061422240
  C         2.4127299200       10.1174552000        4.6261377740
  C         1.4145700800        4.5031448000       20.4182377740
  C         5.2418700800        2.8071552000       11.1659622260
  C         6.2400299200       11.8134448000       26.9580622260
 Br         1.2639275520       13.6812264500        0.7055910280
 Br         2.5633724480        0.9393735500       16.4976910280
 Br         6.3906724480        6.3709264500       15.0865089720
 Br         5.0912275520        8.2496735500       30.8786089720
 Br         1.8240146340        9.1774968260        0.6740068280
 Br         2.0032853660        5.4431031740       16.4661068280
 Br         5.8305853660        1.8671968260       15.1180931720
 Br         5.6513146340       12.7534031740       30.9101931720
 Br         4.1833154460        4.8416116900        0.4330193820
 Br         7.2985845540        9.7789883100       16.2251193820
 Br         3.4712845540       12.1519116900       15.3590806180
 Br         0.3560154460        2.4686883100       31.1511806180
  N         7.1348526600        6.4023607400        5.2335019400
  N         4.3470473400        8.2182392600       21.0256019400
  N         0.5197473400       13.7126607400       10.5585980600
  N         3.3075526600        0.9079392600       26.3506980600
  N         3.0136160200        2.0088704400        5.9251959200
  N         0.8136839800       12.6117295600       21.7172959200
  N         4.6409839800        9.3191704400        9.8669040800
  N         6.8409160200        5.3014295600       25.6590040800
  N         1.2369833600       11.0721803800        6.5275066140
  N         2.5903166400        3.5484196200       22.3196066140
  N         6.4176166400        3.7618803800        9.2645933860
  N         5.0642833600       10.8587196200       25.0566933860
 Cl         2.6063913000        6.5098221500        4.5970803100
 Cl         1.2209087000        8.1107778500       20.3891803100
 Cl         5.0482087000       13.8201221500       11.1950196900
 Cl         6.4336913000        0.8004778500       26.9871196900
 Cl         5.0100887920        4.4067950460        6.4975016240
 Cl         6.4718112080       10.2138049540       22.2896016240
 Cl         2.6445112080       11.7170950460        9.2945983760
 Cl         1.1827887920        2.9035049540       25.0866983760
 Cl         1.3309818480        4.4696636260        7.4226028420
 Cl         2.4963181520       10.1509363740       23.2147028420
 Cl         6.3236181520       11.7799636260        8.3694971580
 Cl         5.1582818480        2.8406363740       24.1615971580
 Cl         4.1651740440        6.0890412820        9.7074038700
 Cl         7.3167259560        8.5315587180       25.4995038700
 Cl         3.4894259560       13.3993412820        6.0846961300
 Cl         0.3378740440        1.2212587180       21.8767961300
 Cl         5.0887780800        8.2618086480        6.8057634160
 Cl         6.3931219200        6.3587913520       22.5978634160
 Cl         2.5658219200        0.9515086480        8.9863365840
 Cl         1.2614780800       13.6690913520       24.7784365840
 Cl         1.4781032600        8.1775939920        7.8925757380
 Cl         2.3491967400        6.4430060080       23.6846757380
 Cl         6.1764967400        0.8672939920        7.8995242620
 Cl         5.3054032600       13.7533060080       23.6916242620
     280
 i =       18, E =     -1636.7587272405
 Eu         3.2464689520        6.3516272580        7.1879322360
 Eu         0.5808310480        8.2689727420       22.9800322360
 Eu         4.4081310480       13.6619272580        8.6041677640
 Eu         7.0737689520        0.9586727420       24.3962677640
  H         0.5121693059        6.5540845245        5.0958675174
  H         3.3153470972        8.0666244242       20.8876702859
  H         7.1425155363       13.8641065838       10.6964076765
  H         4.3392481494        0.7554593931       26.4884540628
  H         7.0113812006        5.5550313162        5.8159408437
  H         4.4705420468        9.0655057080       21.6081220480
  H         0.6441492780       12.8655454563        9.9760994165
  H         3.1842994091        1.7554098105       25.7684840040
  H         6.7137008872        7.1843463172        5.7835369452
  H         4.7682326736        7.4360254923       21.5753662847
  H         0.9409334170       14.4952773264       10.0094123659
  H         2.8860821854        0.1259554519       25.8009101807
  H         3.2952597480        1.0074402400        5.8651878953
  H         0.5330724377       13.6135496962       21.6573647787
  H         4.3600436262        8.3173928084        9.9267324301
  H         7.1207291691        6.3035179734       25.7184092673
  H         2.4867687992        2.1031324037        6.8145739544
  H         1.3398026896       12.5170319726       22.6068841207
  H         5.1679331062        9.4137055833        8.9777499622
  H         6.3143748983        5.2058438965       24.7695856177
  H         3.8561485089        2.6162887151        6.0329970928
  H        -0.0296929987       12.0054133450       21.8241867767
  H         3.7980373417        9.9259923618        9.7587313794
  H         7.6844948604        4.6953233380       25.5519693478
  H         6.5161826285       14.5749657110        2.1358113307
  H         4.9656248520        0.0455420823       17.9279260414
  H         1.1385015256        7.2645190877       13.6563629791
  H         2.6886701308        7.3561539887       29.4483866424
  H         1.9528498377       11.8251474927        6.5929834850
  H         1.8739740236        2.7959665809       22.3856396276
  H         5.6994377989        4.5125329422        9.1981066834
  H         5.7811306483       10.1068770066       24.9905439360
  H         1.5483651090       10.2575084142        7.1017833604
  H         2.2802786291        4.3635769555       22.8939869480
  H         6.1098858340        2.9459700862        8.6896751875
  H         5.3739609125       11.6735786817       24.4816082282
  H         0.3597827252       11.4162714392        6.9743440088
  H         3.4673242895        3.2030004477       22.7653284332
  H         7.2939162987        4.1091761587        8.8191601897
  H         4.1873924683       10.5131550235       24.6105078776
  H         1.9769770957        3.5015198403        4.9288102790
  H         1.8505042664       11.1191178632       20.7208551164
  H         5.6777087318       10.8117911179       10.8632290183
  H         5.8043476166        3.8087635055       26.6554415465
  H         5.3603400791        6.1265910558        4.1724921284
  H         6.1214922809        8.4940026670       19.9647615051
  H         2.2942183947       13.4369407166       11.6195009016
  H         1.5330852474        1.1837513870       27.4116120165
  H         4.9743481503       10.4088201711        2.4405231561
  H         6.5075221155        4.2117528132       18.2326702051
  H         2.6802305041        3.0985401580       13.3515282075
  H         1.1470552200       11.5220751318       29.1436626155
  H         4.6971656265        8.2877203463        3.7171726777
  H         6.7845439028        6.3326518689       19.5096447624
  H         2.9571791386        0.9776940257       12.0744951932
  H         0.8700148424       13.6430073486       27.8667564312
  H         2.9334599324        4.4030634845        3.0665594128
  H         0.8942011097       10.2175655617       18.8585185553
  H         4.7212593753       11.7134039551       12.7257296588
  H         6.7605804793        2.9072365236       28.5177528188
  H         7.0326334841       10.7975991215        1.1325316791
  H         4.4492725163        3.8229990215       16.9246339746
  H         0.6219697901        3.4872949161       14.6595745238
  H         3.2053183356       11.1333159794       30.4516960113
  H         0.8948824520        6.9855278913        2.3435108901
  H         2.9322387339        7.6349181148       18.1361709113
  H         6.7595068551       14.2960304126       13.4480764067
  H         4.7224254577        0.3245360978       29.2400580741
  H         5.4214739490       13.8211107443        4.2362617299
  H         6.0601290427        0.7991713545       20.0285094137
  H         2.2319963582        6.5118375181       11.5548669197
  H         1.5944904760        8.1093397038       27.3478798483
  H         3.1407977039        0.1414016264        3.5623189545
  H         0.6867930059       14.4791366635       19.3543641882
  H         4.5143316110        7.4518705513       12.2298390818
  H         6.9679030298        7.1688126175       28.0218318760
  H         2.0196324724       11.7773426432        2.7838685667
  H         1.8076436127        2.8432112694       18.5759826727
  H         5.6349399350        4.4670768493       13.0081935085
  H         5.8469305045       10.1535524677       28.8003362105
  H         4.7807506901        1.9767351243        0.0606449752
  H         6.7011127773       12.6438664307       15.8527634263
  H         2.8739110318        9.2870251749       15.7314838259
  H         0.9534193817        5.3335505217       31.5235701062
  H         6.4069821567       12.0244282574        5.5704747940
  H         5.0750569026        2.5963439690       21.3624241278
  H         1.2477090594        4.7141580522       10.2216695788
  H         2.5795779545        9.9064993496       26.0137793922
  H         0.3702456264        4.9756598715        3.1311924670
  H         3.4569872928        9.6447752250       18.9236839479
  H         7.2843487804       12.2861627874       12.6609517952
  H         4.1975750699        2.3343198868       28.4529195490
  H         6.4675397755        4.8268002873        2.2765334916
  H         5.0141064817        9.7936762472       18.0685052502
  H         1.1870609187       12.1370330961       13.5155530297
  H         2.6404022549        2.4834105432       29.3077542775
  H         6.6741297192        4.0907645833        3.8842496193
  H         4.8078284837       10.5299367794       19.6761864635
  H         0.9803127646       11.4010666211       11.9077763711
  H         2.8467756714        3.2194670502       27.6998778866
  H         4.3132678580       -0.0355689274        1.3901488958
  H         7.1686677722       14.6560934331       17.1821193804
  H         3.3414594860        7.2749171295       14.4022848586
  H         0.4859362697        7.3457094780       30.1942220328
  H         0.3295132492        9.8267285034        5.1234464473
  H         3.4978603941        4.7938106727       20.9155966896
  H         7.3252038492        2.5165144516       10.6686538667
  H         4.1568684667       12.1042151388       26.4608509567
  H         1.0781030547        0.5649412898        4.6994917203
  H         2.7493214571       14.0557364730       20.4926116411
  H         6.5765388094        7.8752326441       11.0925266214
  H         4.9054377499        6.7454259535       26.8837364874
  H         0.2624563111        1.9305655048        3.9238174417
  H         3.5645421035       12.6906067734       19.7155044954
  H         7.3920213675        9.2408178435       11.8683756498
  H         4.0899023150        5.3802431437       27.6606159726
  H         0.3213406390        1.8220098571        5.7025655386
  H         3.5063655333       12.7977926398       21.4943154572
  H         7.3334417488        9.1324198359       10.0896614031
  H         4.1483356651        5.4876740208       25.8819366214
  H         3.1604551449       10.9208586775        4.6068199893
  H         0.6665688462        3.6999701308       20.4001162687
  H         4.4940997063        3.6105412170       11.1848057457
  H         6.9878143804       11.0101005379       26.9770808126
  H         2.3254782816        9.6777795486        3.6252467955
  H         1.5016358935        4.9415765690       19.4167860603
  H         5.3290654428        2.3678848995       12.1670343606
  H         6.1527802705       12.2527285103       27.9591325025
  H         2.7743635032        9.3305705549        5.2979963394
  H         1.0534824687        5.2910446065       21.0891402455
  H         4.8804553624        2.0199858620       10.4943318344
  H         6.6013051167       12.6006673444       26.2864246450
  C         6.9672169200       13.7959981600        2.7446669800
  C         4.5146830800        0.8246018400       18.5367669800
  C         0.6873830800        6.4856981600       13.0474330200
  C         3.1399169200        8.1349018400       28.8395330200
  C         0.4906598600       13.2170224000        2.3659724220
  C         3.3366401400        1.4035776000       18.1580724220
  C         7.1639401400        5.9067224000       13.4261275780
  C         4.3179598600        8.7138776000       29.2182275780
  C         2.1769682400        2.4372540200        4.7584755720
  C         1.6503317600       12.1833459800       20.5505755720
  C         5.4776317600        9.7475540200       11.0336244280
  C         6.0042682400        4.8730459800       26.8257244280
  C         6.4268021600        6.2342238400        3.9148615900
  C         5.0550978400        8.3863761600       19.7069615900
  C         1.2277978400       13.5445238400       11.8772384100
  C         2.5995021600        1.0760761600       27.6693384100
  C         0.4860671000       11.7871277200        4.2878709920
  C         3.3412329000        2.8334722800       20.0799709920
  C         7.1685329000        4.4768277200       11.5042290080
  C         4.3133671000       10.1437722800       27.2963290080
  C         5.7554937400        9.6510580600        2.4300883480
  C         5.7264062600        4.9695419400       18.2221883480
  C         1.8991062600        2.3407580600       13.3620116520
  C         1.9281937400       12.2798419400       29.1541116520
  C         5.6016362800        8.4740997600        3.1401011640
  C         5.8802637200        6.1465002400       18.9322011640
  C         2.0529637200        1.1637997600       12.6519988360
  C         1.7743362800       13.4568002400       28.4440988360
  C         3.2187593000        3.4182962800        2.7007649420
  C         0.6085407000       11.2023037200       18.4928649420
  C         4.4358407000       10.7285962800       13.0913350580
  C         7.0460593000        3.8920037200       28.8834350580
  C         6.9075110400        9.8791394200        1.6976507500
  C         4.5743889600        4.7414605800       17.4897507500
  C         0.7470889600        2.5688394200       14.0944492500
  C         3.0802110400       12.0517605800       29.8865492500
  C         2.9585029000        2.2851997800        3.4537322700
  C         0.8687971000       12.3354002200       19.2458322700
  C         4.6960971000        9.5954997800       12.3383677300
  C         6.7858029000        5.0251002200       28.1304677300
  C         0.0987443400        7.7240629800        2.3669199480
  C         3.7285556600        6.8965370200       18.1590199480
  C         7.5558556600        0.4137629800       13.4251800520
  C         3.9260443400       14.2068370200       29.2172800520
  C         6.3602071400       13.3763869400        3.9126506960
  C         5.1216928600        1.2442130600       19.7047506960
  C         1.2943928600        6.0660869400       11.8794493040
  C         2.5329071400        8.5545130600       27.6715493040
  C         3.3565421000        1.0424487800        2.9891286880
  C         0.4707579000       13.5781512200       18.7812286880
  C         4.2980579000        8.3527487800       12.8029713120
  C         7.1838421000        6.2678512200       28.5950713120
  C         6.5959688200        7.5076781000        3.1069377540
  C         4.8859311800        7.1129219000       18.8990377540
  C         1.0586311800        0.1973781000       12.6851622460
  C         2.7686688200       14.4232219000       28.4772622460
  C         0.2342307600        8.9024833400        1.6692249700
  C         3.5930692400        5.7181166600       17.4613249700
  C         7.4203692400        1.5921833400       14.1228750300
  C         4.0615307600       13.0284166600       29.9149750300
  C         3.8648075400        3.2808626400        1.4705603520
  C         7.6170924600       11.3397373600       17.2626603520
  C         3.7897924600       10.5911626400       14.3215396480
  C         0.0375075400        4.0294373600       30.1136396480
  C         1.0915459600       12.2213595400        3.1299942200
  C         2.7357540400        2.3992404600       18.9220942200
  C         6.5630540400        4.9110595400       12.6621057800
  C         4.9188459600        9.7095404600       28.4542057800
  C         4.2643776600        2.0615046000        1.0148003460
  C         7.2175223400       12.5590954000       16.8069003460
  C         3.3902223400        9.3718046000       14.7772996540
  C         0.4370776600        5.2487954000       30.5693996540
  C         6.9281784600       12.3617173000        4.6744616000
  C         4.5537215400        2.2588827000       20.4665616000
  C         0.7264215400        5.0514173000       11.1176384000
  C         3.1008784600        9.5691827000       26.9097384000
  C         6.9350676000        4.9563834000        3.2610686500
  C         4.5468324000        9.6642166000       19.0531686500
  C         0.7195324000       12.2666834000       12.5310313500
  C         3.1077676000        2.3539166000       28.3231313500
  C         4.0156031600        0.9401045800        1.7671359900
  C         7.4662968400       13.6804954200       17.5592359900
  C         3.6389968400        8.2504045800       14.0249640100
  C         0.1883031600        6.3701954200       29.8170640100
  C         1.0662857800       10.6423347400        5.0983215640
  C         2.7610142200        3.9782652600       20.8904215640
  C         6.5883142200        3.3320347400       10.6937784360
  C         4.8935857800       11.2885652600       26.4858784360
  C         0.8886990600        1.6433554400        4.7780577760
  C         2.9386009400       12.9772445600       20.5701577760
  C         6.7659009400        8.9536554400       11.0140422240
  C         4.7159990600        5.6669445600       26.8061422240
  C         2.4127299200       10.1174552000        4.6261377740
  C         1.4145700800        4.5031448000       20.4182377740
  C         5.2418700800        2.8071552000       11.1659622260
  C         6.2400299200       11.8134448000       26.9580622260
 Br         1.2639275520       13.6812264500        0.7055910280
 Br         2.5633724480        0.9393735500       16.4976910280
 Br         6.3906724480        6.3709264500       15.0865089720
 Br         5.0912275520        8.2496735500       30.8786089720
 Br         1.8240146340        9.1774968260        0.6740068280
 Br         2.0032853660        5.4431031740       16.4661068280
 Br         5.8305853660        1.8671968260       15.1180931720
 Br         5.6513146340       12.7534031740       30.9101931720
 Br         4.1833154460        4.8416116900        0.4330193820
 Br         7.2985845540        9.7789883100       16.2251193820
 Br         3.4712845540       12.1519116900       15.3590806180
 Br         0.3560154460        2.4686883100       31.1511806180
  N         7.1348526600        6.4023607400        5.2335019400
  N         4.3470473400        8.2182392600       21.0256019400
  N         0.5197473400       13.7126607400       10.5585980600
  N         3.3075526600        0.9079392600       26.3506980600
  N         3.0136160200        2.0088704400        5.9251959200
  N         0.8136839800       12.6117295600       21.7172959200
  N         4.6409839800        9.3191704400        9.8669040800
  N         6.8409160200        5.3014295600       25.6590040800
  N         1.2369833600       11.0721803800        6.5275066140
  N         2.5903166400        3.5484196200       22.3196066140
  N         6.4176166400        3.7618803800        9.2645933860
  N         5.0642833600       10.8587196200       25.0566933860
 Cl         2.6063913000        6.5098221500        4.5970803100
 Cl         1.2209087000        8.1107778500       20.3891803100
 Cl         5.0482087000       13.8201221500       11.1950196900
 Cl         6.4336913000        0.8004778500       26.9871196900
 Cl         5.0100887920        4.4067950460        6.4975016240
 Cl         6.4718112080       10.2138049540       22.2896016240
 Cl         2.6445112080       11.7170950460        9.2945983760
 Cl         1.1827887920        2.9035049540       25.0866983760
 Cl         1.3309818480        4.4696636260        7.4226028420
 Cl         2.4963181520       10.1509363740       23.2147028420
 Cl         6.3236181520       11.7799636260        8.3694971580
 Cl         5.1582818480        2.8406363740       24.1615971580
 Cl         4.1651740440        6.0890412820        9.7074038700
 Cl         7.3167259560        8.5315587180       25.4995038700
 Cl         3.4894259560       13.3993412820        6.0846961300
 Cl         0.3378740440        1.2212587180       21.8767961300
 Cl         5.0887780800        8.2618086480        6.8057634160
 Cl         6.3931219200        6.3587913520       22.5978634160
 Cl         2.5658219200        0.9515086480        8.9863365840
 Cl         1.2614780800       13.6690913520       24.7784365840
 Cl         1.4781032600        8.1775939920        7.8925757380
 Cl         2.3491967400        6.4430060080       23.6846757380
 Cl         6.1764967400        0.8672939920        7.8995242620
 Cl         5.3054032600       13.7533060080       23.6916242620
     280
 i =       19, E =     -1636.7586399189
 Eu         3.2464689520        6.3516272580        7.1879322360
 Eu         0.5808310480        8.2689727420       22.9800322360
 Eu         4.4081310480       13.6619272580        8.6041677640
 Eu         7.0737689520        0.9586727420       24.3962677640
  H         0.5121674315        6.5535840909        5.0958339546
  H         3.3153437664        8.0671407047       20.8876685767
  H         7.1425205459       13.8636064005       10.6964167398
  H         4.3392522937        0.7560033101       26.4886001971
  H         7.0108046504        5.5552531305        5.8161648212
  H         4.4711327299        9.0652786264       21.6083761733
  H         0.6447369171       12.8657688453        9.9758538194
  H         3.1837779049        1.7552590937       25.7683348261
  H         6.7139784529        7.1847261058        5.7831700368
  H         4.7678905279        7.4356626308       21.5750621863
  H         0.9406051329       14.4956425851       10.0097199221
  H         2.8863689553        0.1256016277       25.8011849808
  H         3.2954072657        1.0074936454        5.8650029774
  H         0.5329781103       13.6134983931       21.6571916449
  H         4.3599147369        8.3174486154        9.9269086800
  H         7.1208537651        6.3034611133       25.7185694252
  H         2.4867277393        2.1029017053        6.8145796822
  H         1.3398099828       12.5172403640       22.6069044532
  H         5.1679481821        9.4134840748        8.9777051247
  H         6.3144744697        5.2058663309       24.7695076855
  H         3.8560791740        2.6163528312        6.0330594370
  H        -0.0295828216       12.0053215510       21.8242194597
  H         3.7981449298        9.9260945986        9.7587107837
  H         7.6844323765        4.6952812592       25.5519578502
  H         6.5161308946       14.5749264627        2.1357695321
  H         4.9656471713        0.0455491822       17.9278833559
  H         1.1385180553        7.2645176205       13.6564022180
  H         2.6886465061        7.3561606265       29.4484215906
  H         1.9523699165       11.8256490912        6.5928289019
  H         1.8742419459        2.7956192371       22.3853594616
  H         5.6999175512        4.5130367294        9.1982449276
  H         5.7807514209       10.1064712328       24.9907854824
  H         1.5488622748       10.2576823738        7.1017228532
  H         2.2801559351        4.3633060348       22.8942427732
  H         6.1093168458        2.9461835982        8.6897537801
  H         5.3743560075       11.6736236866       24.4818791824
  H         0.3595569018       11.4157137474        6.9744048335
  H         3.4674655801        3.2034454535       22.7654216879
  H         7.2941492605        4.1086051443        8.8190152947
  H         4.1872708675       10.5136400043       24.6103207816
  H         1.9768656297        3.5014903335        4.9287978703
  H         1.8505929800       11.1191373742       20.7208015134
  H         5.6778048247       10.8117690347       10.8632801461
  H         5.8042484178        3.8087864953       26.6554712983
  H         5.3603245442        6.1265589514        4.1723841596
  H         6.1215052232        8.4940463585       19.9646702046
  H         2.2942304598       13.4368973745       11.6195951245
  H         1.5330653170        1.1838288577       27.4117266751
  H         4.9742883155       10.4087964048        2.4404785762
  H         6.5075826212        4.2117766154       18.2326263043
  H         2.6802905631        3.0985165948       13.3515714503
  H         1.1469950339       11.5220980754       29.1437100550
  H         4.6971601909        8.2877190662        3.7172171180
  H         6.7845615225        6.3326396767       19.5096776334
  H         2.9571948211        0.9777090618       12.0744590628
  H         0.8699897634       13.6430206760       27.8667458403
  H         2.9334085649        4.4030809398        3.0665627346
  H         0.8942478328       10.2175448872       18.8585157165
  H         4.7213078560       11.7134255975       12.7257348930
  H         6.7605404781        2.9072182237       28.5177600895
  H         7.0326407131       10.7976266619        1.1325300347
  H         4.4492672381        3.8229711873       16.9246313863
  H         0.6219640085        3.4873236127       14.6595753502
  H         3.2053254754       11.1332888676       30.4516982657
  H         0.8948953072        6.9855030980        2.3435243193
  H         2.9322262392        7.6349442314       18.1361857650
  H         6.7594936497       14.2960052271       13.4480608937
  H         4.7224219194        0.3245734125       29.2400943882
  H         5.4214456650       13.8211244443        4.2362597821
  H         6.0600186965        0.7990422982       20.0286132833
  H         2.2320206216        6.5118275217       11.5548346166
  H         1.5944667487        8.1093227805       27.3478813499
  H         3.1407457150        0.1413991693        3.5623426975
  H         0.6868877569       14.4791185035       19.3543888206
  H         4.5144040033        7.4518906504       12.2297964152
  H         6.9678495455        7.1688109660       28.0218034634
  H         2.0196251099       11.7772800619        2.7838602587
  H         1.8076538165        2.8432801325       18.5759738592
  H         5.6349469309        4.4670130178       13.0081999316
  H         5.8469258349       10.1536125157       28.8003410839
  H         4.7807117505        1.9767468762        0.0605915165
  H         6.7011496735       12.6438629415       15.8527119371
  H         2.8739460416        9.2870342565       15.7315356783
  H         0.9533839889        5.3335401861       31.5236217369
  H         6.4070148992       12.0243873893        5.5705068530
  H         5.0750322934        2.5963577195       21.3624685966
  H         1.2476737783        4.7141263153       10.2216300770
  H         2.5796350453        9.9064937547       26.0137195263
  H         0.3702425588        4.9757213198        3.1310396444
  H         3.4569913076        9.6446970737       18.9235281089
  H         7.2843543294       12.2862436813       12.6611134623
  H         4.1975743754        2.3343585147       28.4530391912
  H         6.4674424975        4.8267452868        2.2765659250
  H         5.0142026577        9.7937203366       18.0685341017
  H         1.1871651954       12.1369813629       13.5155189065
  H         2.6402704532        2.4834829517       29.3077041143
  H         6.6742875300        4.0907142435        3.8842753792
  H         4.8076758200       10.5299790914       19.6762217340
  H         0.9801523519       11.4010285135       11.9077340322
  H         2.8468902303        3.2194736214       27.6998157307
  H         4.3132922723       -0.0355968422        1.3901581221
  H         7.1686045526       14.6560792423       17.1821062063
  H         3.3414332678        7.2748962612       14.4022926071
  H         0.4859584479        7.3457358046       30.1942150341
  H         0.3295679017        9.8266929665        5.1233524280
  H         3.4977953492        4.7938562417       20.9155582983
  H         7.3251429475        2.5164776877       10.6687307208
  H         4.1569475171       12.1042752312       26.4609176550
  H         1.0780798114        0.5649649930        4.6990457791
  H         2.7492859333       14.0557037505       20.4920852348
  H         6.5765625059        7.8752577235       11.0930025555
  H         4.9054262779        6.7453986273       26.8842506493
  H         0.2622184166        1.9308999567        3.9240807496
  H         3.5647042456       12.6903413639       19.7156810699
  H         7.3922642149        9.2411686425       11.8681090049
  H         4.0897046794        5.3799405023       27.6604009812
  H         0.3215693103        1.8216738092        5.7028009240
  H         3.5062469748       12.7981810349       21.4945026158
  H         7.3332068774        9.1320931478       10.0894298599
  H         4.1485150372        5.4880619928       25.8817220849
  H         3.1603892434       10.9209276871        4.6064706593
  H         0.6666202119        3.6999163198       20.3997912851
  H         4.4941602483        3.6106047248       11.1851425986
  H         6.9877782628       11.0100553029       26.9773418439
  H         2.3253888104        9.6775038849        3.6253532794
  H         1.5017402285        4.9418203753       19.4168738545
  H         5.3291546407        2.3676249052       12.1669376532
  H         6.1527115948       12.2529710538       27.9590427654
  H         2.7745571174        9.3307640540        5.2981418362
  H         1.0532943013        5.2908723996       21.0892654125
  H         4.8802643198        2.0201843885       10.4941806370
  H         6.6014869413       12.6004507109       26.2862582971
  C         6.9672169200       13.7959981600        2.7446669800
  C         4.5146830800        0.8246018400       18.5367669800
  C         0.6873830800        6.4856981600       13.0474330200
  C         3.1399169200        8.1349018400       28.8395330200
  C         0.4906598600       13.2170224000        2.3659724220
  C         3.3366401400        1.4035776000       18.1580724220
  C         7.1639401400        5.9067224000       13.4261275780
  C         4.3179598600        8.7138776000       29.2182275780
  C         2.1769682400        2.4372540200        4.7584755720
  C         1.6503317600       12.1833459800       20.5505755720
  C         5.4776317600        9.7475540200       11.0336244280
  C         6.0042682400        4.8730459800       26.8257244280
  C         6.4268021600        6.2342238400        3.9148615900
  C         5.0550978400        8.3863761600       19.7069615900
  C         1.2277978400       13.5445238400       11.8772384100
  C         2.5995021600        1.0760761600       27.6693384100
  C         0.4860671000       11.7871277200        4.2878709920
  C         3.3412329000        2.8334722800       20.0799709920
  C         7.1685329000        4.4768277200       11.5042290080
  C         4.3133671000       10.1437722800       27.2963290080
  C         5.7554937400        9.6510580600        2.4300883480
  C         5.7264062600        4.9695419400       18.2221883480
  C         1.8991062600        2.3407580600       13.3620116520
  C         1.9281937400       12.2798419400       29.1541116520
  C         5.6016362800        8.4740997600        3.1401011640
  C         5.8802637200        6.1465002400       18.9322011640
  C         2.0529637200        1.1637997600       12.6519988360
  C         1.7743362800       13.4568002400       28.4440988360
  C         3.2187593000        3.4182962800        2.7007649420
  C         0.6085407000       11.2023037200       18.4928649420
  C         4.4358407000       10.7285962800       13.0913350580
  C         7.0460593000        3.8920037200       28.8834350580
  C         6.9075110400        9.8791394200        1.6976507500
  C         4.5743889600        4.7414605800       17.4897507500
  C         0.7470889600        2.5688394200       14.0944492500
  C         3.0802110400       12.0517605800       29.8865492500
  C         2.9585029000        2.2851997800        3.4537322700
  C         0.8687971000       12.3354002200       19.2458322700
  C         4.6960971000        9.5954997800       12.3383677300
  C         6.7858029000        5.0251002200       28.1304677300
  C         0.0987443400        7.7240629800        2.3669199480
  C         3.7285556600        6.8965370200       18.1590199480
  C         7.5558556600        0.4137629800       13.4251800520
  C         3.9260443400       14.2068370200       29.2172800520
  C         6.3602071400       13.3763869400        3.9126506960
  C         5.1216928600        1.2442130600       19.7047506960
  C         1.2943928600        6.0660869400       11.8794493040
  C         2.5329071400        8.5545130600       27.6715493040
  C         3.3565421000        1.0424487800        2.9891286880
  C         0.4707579000       13.5781512200       18.7812286880
  C         4.2980579000        8.3527487800       12.8029713120
  C         7.1838421000        6.2678512200       28.5950713120
  C         6.5959688200        7.5076781000        3.1069377540
  C         4.8859311800        7.1129219000       18.8990377540
  C         1.0586311800        0.1973781000       12.6851622460
  C         2.7686688200       14.4232219000       28.4772622460
  C         0.2342307600        8.9024833400        1.6692249700
  C         3.5930692400        5.7181166600       17.4613249700
  C         7.4203692400        1.5921833400       14.1228750300
  C         4.0615307600       13.0284166600       29.9149750300
  C         3.8648075400        3.2808626400        1.4705603520
  C         7.6170924600       11.3397373600       17.2626603520
  C         3.7897924600       10.5911626400       14.3215396480
  C         0.0375075400        4.0294373600       30.1136396480
  C         1.0915459600       12.2213595400        3.1299942200
  C         2.7357540400        2.3992404600       18.9220942200
  C         6.5630540400        4.9110595400       12.6621057800
  C         4.9188459600        9.7095404600       28.4542057800
  C         4.2643776600        2.0615046000        1.0148003460
  C         7.2175223400       12.5590954000       16.8069003460
  C         3.3902223400        9.3718046000       14.7772996540
  C         0.4370776600        5.2487954000       30.5693996540
  C         6.9281784600       12.3617173000        4.6744616000
  C         4.5537215400        2.2588827000       20.4665616000
  C         0.7264215400        5.0514173000       11.1176384000
  C         3.1008784600        9.5691827000       26.9097384000
  C         6.9350676000        4.9563834000        3.2610686500
  C         4.5468324000        9.6642166000       19.0531686500
  C         0.7195324000       12.2666834000       12.5310313500
  C         3.1077676000        2.3539166000       28.3231313500
  C         4.0156031600        0.9401045800        1.7671359900
  C         7.4662968400       13.6804954200       17.5592359900
  C         3.6389968400        8.2504045800       14.0249640100
  C         0.1883031600        6.3701954200       29.8170640100
  C         1.0662857800       10.6423347400        5.0983215640
  C         2.7610142200        3.9782652600       20.8904215640
  C         6.5883142200        3.3320347400       10.6937784360
  C         4.8935857800       11.2885652600       26.4858784360
  C         0.8886990600        1.6433554400        4.7780577760
  C         2.9386009400       12.9772445600       20.5701577760
  C         6.7659009400        8.9536554400       11.0140422240
  C         4.7159990600        5.6669445600       26.8061422240
  C         2.4127299200       10.1174552000        4.6261377740
  C         1.4145700800        4.5031448000       20.4182377740
  C         5.2418700800        2.8071552000       11.1659622260
  C         6.2400299200       11.8134448000       26.9580622260
 Br         1.2639275520       13.6812264500        0.7055910280
 Br         2.5633724480        0.9393735500       16.4976910280
 Br         6.3906724480        6.3709264500       15.0865089720
 Br         5.0912275520        8.2496735500       30.8786089720
 Br         1.8240146340        9.1774968260        0.6740068280
 Br         2.0032853660        5.4431031740       16.4661068280
 Br         5.8305853660        1.8671968260       15.1180931720
 Br         5.6513146340       12.7534031740       30.9101931720
 Br         4.1833154460        4.8416116900        0.4330193820
 Br         7.2985845540        9.7789883100       16.2251193820
 Br         3.4712845540       12.1519116900       15.3590806180
 Br         0.3560154460        2.4686883100       31.1511806180
  N         7.1348526600        6.4023607400        5.2335019400
  N         4.3470473400        8.2182392600       21.0256019400
  N         0.5197473400       13.7126607400       10.5585980600
  N         3.3075526600        0.9079392600       26.3506980600
  N         3.0136160200        2.0088704400        5.9251959200
  N         0.8136839800       12.6117295600       21.7172959200
  N         4.6409839800        9.3191704400        9.8669040800
  N         6.8409160200        5.3014295600       25.6590040800
  N         1.2369833600       11.0721803800        6.5275066140
  N         2.5903166400        3.5484196200       22.3196066140
  N         6.4176166400        3.7618803800        9.2645933860
  N         5.0642833600       10.8587196200       25.0566933860
 Cl         2.6063913000        6.5098221500        4.5970803100
 Cl         1.2209087000        8.1107778500       20.3891803100
 Cl         5.0482087000       13.8201221500       11.1950196900
 Cl         6.4336913000        0.8004778500       26.9871196900
 Cl         5.0100887920        4.4067950460        6.4975016240
 Cl         6.4718112080       10.2138049540       22.2896016240
 Cl         2.6445112080       11.7170950460        9.2945983760
 Cl         1.1827887920        2.9035049540       25.0866983760
 Cl         1.3309818480        4.4696636260        7.4226028420
 Cl         2.4963181520       10.1509363740       23.2147028420
 Cl         6.3236181520       11.7799636260        8.3694971580
 Cl         5.1582818480        2.8406363740       24.1615971580
 Cl         4.1651740440        6.0890412820        9.7074038700
 Cl         7.3167259560        8.5315587180       25.4995038700
 Cl         3.4894259560       13.3993412820        6.0846961300
 Cl         0.3378740440        1.2212587180       21.8767961300
 Cl         5.0887780800        8.2618086480        6.8057634160
 Cl         6.3931219200        6.3587913520       22.5978634160
 Cl         2.5658219200        0.9515086480        8.9863365840
 Cl         1.2614780800       13.6690913520       24.7784365840
 Cl         1.4781032600        8.1775939920        7.8925757380
 Cl         2.3491967400        6.4430060080       23.6846757380
 Cl         6.1764967400        0.8672939920        7.8995242620
 Cl         5.3054032600       13.7533060080       23.6916242620
     280
 i =       20, E =     -1636.7587371852
 Eu         3.2464689520        6.3516272580        7.1879322360
 Eu         0.5808310480        8.2689727420       22.9800322360
 Eu         4.4081310480       13.6619272580        8.6041677640
 Eu         7.0737689520        0.9586727420       24.3962677640
  H         0.5122083845        6.5532851578        5.0958895478
  H         3.3153025435        8.0674995173       20.8877119862
  H         7.1424860121       13.8632610958       10.6963728378
  H         4.3393106383        0.7564338047       26.4885998351
  H         7.0103493344        5.5554517693        5.8163496895
  H         4.4715810452        9.0651178477       21.6085373313
  H         0.6451832740       12.8659272583        9.9756992122
  H         3.1833784625        1.7550450890       25.7681007611
  H         6.7141192553        7.1849845029        5.7829466892
  H         4.7677043363        7.4354013229       21.5748640952
  H         0.9404332737       14.4959026363       10.0099257420
  H         2.8865445911        0.1253685315       25.8013314313
  H         3.2954491871        1.0074943743        5.8648203768
  H         0.5329240158       13.6134868271       21.6569797052
  H         4.3598266673        8.3174726447        9.9270793250
  H         7.1209321041        6.3034513553       25.7187066085
  H         2.4867138993        2.1027158768        6.8145910706
  H         1.3398107766       12.5173864394       22.6069338324
  H         5.1679467722        9.4133148606        8.9776579986
  H         6.3145123314        5.2059323538       24.7694649325
  H         3.8560536319        2.6164043995        6.0331168586
  H        -0.0295033822       12.0052064868       21.8242777857
  H         3.7981685753        9.9261421611        9.7587096445
  H         7.6844481382        4.6952771797       25.5519047599
  H         6.5160302828       14.5747985114        2.1357042291
  H         4.9656788680        0.0455966448       17.9278376551
  H         1.1385610858        7.2644606558       13.6564511674
  H         2.6886004329        7.3562253256       29.4484744033
  H         1.9520852491       11.8259707739        6.5927671861
  H         1.8742840624        2.7955034522       22.3851732584
  H         5.7002053633        4.5133646402        9.1983473348
  H         5.7805099256       10.1061898202       24.9909194503
  H         1.5492121197       10.2578012950        7.1017131661
  H         2.2801787922        4.3631763257       22.8944239478
  H         6.1089469318        2.9463030959        8.6898030824
  H         5.3745841983       11.6736678830       24.4819917145
  H         0.3593757599       11.4153783076        6.9744053939
  H         3.4675685537        3.2036194135       22.7655217975
  H         7.2943293176        4.1082659675        8.8189375891
  H         4.1871480843       10.5140132613       24.6102083742
  H         1.9767694534        3.5014584265        4.9287738343
  H         1.8506649927       11.1191604419       20.7207629092
  H         5.6778908575       10.8117416143       10.8633240750
  H         5.8041488517        3.8088182546       26.6555012032
  H         5.3603144928        6.1265216133        4.1723061080
  H         6.1215140502        8.4940880600       19.9645944171
  H         2.2942382710       13.4368530196       11.6196728463
  H         1.5330489931        1.1838615405       27.4118117801
  H         4.9741948789       10.4087112654        2.4403583392
  H         6.5076772774        4.2118632385       18.2325105715
  H         2.6803800196        3.0984354813       13.3516852383
  H         1.1469038444       11.5221806875       29.1438247685
  H         4.6971466499        8.2877176988        3.7172127234
  H         6.7845808384        6.3326308993       19.5096692825
  H         2.9572119236        0.9777197311       12.0744643048
  H         0.8699632023       13.6430117795       27.8667705033
  H         2.9333431616        4.4030856257        3.0665402308
  H         0.8943128563       10.2175408199       18.8584922663
  H         4.7213814693       11.7134285314       12.7257646267
  H         6.7604683886        2.9072337282       28.5177616948
  H         7.0326308138       10.7976177168        1.1325092850
  H         4.4492762913        3.8229798584       16.9246109053
  H         0.6219727352        3.4873183107       14.6595905606
  H         3.2053195732       11.1332940156       30.4517118743
  H         0.8948824442        6.9854823146        2.3435256908
  H         2.9322411650        7.6349661526       18.1361865544
  H         6.7595087715       14.2959834739       13.4480612015
  H         4.7223722379        0.3246248287       29.2401856249
  H         5.4214188750       13.8211141456        4.2362203409
  H         6.0598522161        0.7988828559       20.0287536928
  H         2.2320522263        6.5118010295       11.5548659517
  H         1.5944462346        8.1093293441       27.3479131284
  H         3.1406787188        0.1414031804        3.5623432639
  H         0.6870141237       14.4790907996       19.3543812095
  H         4.5144667015        7.4519020657       12.2297846846
  H         6.9677905051        7.1688032773       28.0217937113
  H         2.0196259167       11.7772599972        2.7838815414
  H         1.8076563577        2.8433085372       18.5759969927
  H         5.6349445521        4.4669952233       13.0081770312
  H         5.8469291538       10.1536304792       28.8003163037
  H         4.7805811533        1.9767470639        0.0605126954
  H         6.7012767281       12.6438721841       15.8526361020
  H         2.8740718381        9.2870282802       15.7316119043
  H         0.9532604893        5.3335439042       31.5236969248
  H         6.4070372848       12.0243279200        5.5705087428
  H         5.0749957346        2.5963825434       21.3624975245
  H         1.2476460819        4.7140821065       10.2216179369
  H         2.5796995056        9.9065274418       26.0136842594
  H         0.3702161349        4.9758052777        3.1309040695
  H         3.4570179648        9.6446092267       18.9233960341
  H         7.2843821123       12.2863307989       12.6612499376
  H         4.1975476944        2.3344153255       28.4531436358
  H         6.4673802258        4.8267219008        2.2766012741
  H         5.0142713611        9.7937385623       18.0685709047
  H         1.1872384399       12.1369570366       13.5154786460
  H         2.6401721920        2.4835545269       29.3076440076
  H         6.6744333605        4.0906819205        3.8842770583
  H         4.8075311766       10.5300040847       19.6762299623
  H         0.9799992340       11.4010045142       11.9077207631
  H         2.8470330709        3.2195234859       27.6998381633
  H         4.3132545332       -0.0356130902        1.3901448312
  H         7.1686253422       14.6560585656       17.1820661789
  H         3.3414692890        7.2748833690       14.4023125438
  H         0.4859233569        7.3457502973       30.1942272714
  H         0.3296328374        9.8266528296        5.1232505341
  H         3.4977283110        4.7938947428       20.9154592287
  H         7.3250731652        2.5164382066       10.6688214826
  H         4.1569837421       12.1043001435       26.4609859789
  H         1.0780395675        0.5650016278        4.6987029248
  H         2.7492492579       14.0556545875       20.4916449233
  H         6.5766129675        7.8752946369       11.0933543960
  H         4.9054325412        6.7453504091       26.8846718491
  H         0.2620158010        1.9311769081        3.9243355329
  H         3.5648375545       12.6900949525       19.7158588537
  H         7.3924727208        9.2414534150       11.8678562535
  H         4.0895562315        5.3796899337       27.6602096972
  H         0.3217997716        1.8214056802        5.7029959033
  H         3.5060371554       12.7984273274       21.4946571535
  H         7.3329622473        9.1318368731       10.0892358821
  H         4.1487653108        5.4883406924       25.8815215211
  H         3.1603213039       10.9209708415        4.6061868685
  H         0.6666767304        3.6998857296       20.3995299923
  H         4.4942322180        3.6106524852       11.1854117006
  H         6.9877451669       11.0100394230       26.9775735672
  H         2.3252871106        9.6773119642        3.6254495423
  H         1.5018448547        4.9419914819       19.4169567920
  H         5.3292487003        2.3674399077       12.1668461778
  H         6.1526434807       12.2531719842       27.9589428560
  H         2.7747190182        9.3309425964        5.2982358162
  H         1.0531484658        5.2907011608       21.0893581862
  H         4.8801108597        2.0203597908       10.4940861975
  H         6.6016796768       12.6002583427       26.2861662591
  C         6.9672169200       13.7959981600        2.7446669800
  C         4.5146830800        0.8246018400       18.5367669800
  C         0.6873830800        6.4856981600       13.0474330200
  C         3.1399169200        8.1349018400       28.8395330200
  C         0.4906598600       13.2170224000        2.3659724220
  C         3.3366401400        1.4035776000       18.1580724220
  C         7.1639401400        5.9067224000       13.4261275780
  C         4.3179598600        8.7138776000       29.2182275780
  C         2.1769682400        2.4372540200        4.7584755720
  C         1.6503317600       12.1833459800       20.5505755720
  C         5.4776317600        9.7475540200       11.0336244280
  C         6.0042682400        4.8730459800       26.8257244280
  C         6.4268021600        6.2342238400        3.9148615900
  C         5.0550978400        8.3863761600       19.7069615900
  C         1.2277978400       13.5445238400       11.8772384100
  C         2.5995021600        1.0760761600       27.6693384100
  C         0.4860671000       11.7871277200        4.2878709920
  C         3.3412329000        2.8334722800       20.0799709920
  C         7.1685329000        4.4768277200       11.5042290080
  C         4.3133671000       10.1437722800       27.2963290080
  C         5.7554937400        9.6510580600        2.4300883480
  C         5.7264062600        4.9695419400       18.2221883480
  C         1.8991062600        2.3407580600       13.3620116520
  C         1.9281937400       12.2798419400       29.1541116520
  C         5.6016362800        8.4740997600        3.1401011640
  C         5.8802637200        6.1465002400       18.9322011640
  C         2.0529637200        1.1637997600       12.6519988360
  C         1.7743362800       13.4568002400       28.4440988360
  C         3.2187593000        3.4182962800        2.7007649420
  C         0.6085407000       11.2023037200       18.4928649420
  C         4.4358407000       10.7285962800       13.0913350580
  C         7.0460593000        3.8920037200       28.8834350580
  C         6.9075110400        9.8791394200        1.6976507500
  C         4.5743889600        4.7414605800       17.4897507500
  C         0.7470889600        2.5688394200       14.0944492500
  C         3.0802110400       12.0517605800       29.8865492500
  C         2.9585029000        2.2851997800        3.4537322700
  C         0.8687971000       12.3354002200       19.2458322700
  C         4.6960971000        9.5954997800       12.3383677300
  C         6.7858029000        5.0251002200       28.1304677300
  C         0.0987443400        7.7240629800        2.3669199480
  C         3.7285556600        6.8965370200       18.1590199480
  C         7.5558556600        0.4137629800       13.4251800520
  C         3.9260443400       14.2068370200       29.2172800520
  C         6.3602071400       13.3763869400        3.9126506960
  C         5.1216928600        1.2442130600       19.7047506960
  C         1.2943928600        6.0660869400       11.8794493040
  C         2.5329071400        8.5545130600       27.6715493040
  C         3.3565421000        1.0424487800        2.9891286880
  C         0.4707579000       13.5781512200       18.7812286880
  C         4.2980579000        8.3527487800       12.8029713120
  C         7.1838421000        6.2678512200       28.5950713120
  C         6.5959688200        7.5076781000        3.1069377540
  C         4.8859311800        7.1129219000       18.8990377540
  C         1.0586311800        0.1973781000       12.6851622460
  C         2.7686688200       14.4232219000       28.4772622460
  C         0.2342307600        8.9024833400        1.6692249700
  C         3.5930692400        5.7181166600       17.4613249700
  C         7.4203692400        1.5921833400       14.1228750300
  C         4.0615307600       13.0284166600       29.9149750300
  C         3.8648075400        3.2808626400        1.4705603520
  C         7.6170924600       11.3397373600       17.2626603520
  C         3.7897924600       10.5911626400       14.3215396480
  C         0.0375075400        4.0294373600       30.1136396480
  C         1.0915459600       12.2213595400        3.1299942200
  C         2.7357540400        2.3992404600       18.9220942200
  C         6.5630540400        4.9110595400       12.6621057800
  C         4.9188459600        9.7095404600       28.4542057800
  C         4.2643776600        2.0615046000        1.0148003460
  C         7.2175223400       12.5590954000       16.8069003460
  C         3.3902223400        9.3718046000       14.7772996540
  C         0.4370776600        5.2487954000       30.5693996540
  C         6.9281784600       12.3617173000        4.6744616000
  C         4.5537215400        2.2588827000       20.4665616000
  C         0.7264215400        5.0514173000       11.1176384000
  C         3.1008784600        9.5691827000       26.9097384000
  C         6.9350676000        4.9563834000        3.2610686500
  C         4.5468324000        9.6642166000       19.0531686500
  C         0.7195324000       12.2666834000       12.5310313500
  C         3.1077676000        2.3539166000       28.3231313500
  C         4.0156031600        0.9401045800        1.7671359900
  C         7.4662968400       13.6804954200       17.5592359900
  C         3.6389968400        8.2504045800       14.0249640100
  C         0.1883031600        6.3701954200       29.8170640100
  C         1.0662857800       10.6423347400        5.0983215640
  C         2.7610142200        3.9782652600       20.8904215640
  C         6.5883142200        3.3320347400       10.6937784360
  C         4.8935857800       11.2885652600       26.4858784360
  C         0.8886990600        1.6433554400        4.7780577760
  C         2.9386009400       12.9772445600       20.5701577760
  C         6.7659009400        8.9536554400       11.0140422240
  C         4.7159990600        5.6669445600       26.8061422240
  C         2.4127299200       10.1174552000        4.6261377740
  C         1.4145700800        4.5031448000       20.4182377740
  C         5.2418700800        2.8071552000       11.1659622260
  C         6.2400299200       11.8134448000       26.9580622260
 Br         1.2639275520       13.6812264500        0.7055910280
 Br         2.5633724480        0.9393735500       16.4976910280
 Br         6.3906724480        6.3709264500       15.0865089720
 Br         5.0912275520        8.2496735500       30.8786089720
 Br         1.8240146340        9.1774968260        0.6740068280
 Br         2.0032853660        5.4431031740       16.4661068280
 Br         5.8305853660        1.8671968260       15.1180931720
 Br         5.6513146340       12.7534031740       30.9101931720
 Br         4.1833154460        4.8416116900        0.4330193820
 Br         7.2985845540        9.7789883100       16.2251193820
 Br         3.4712845540       12.1519116900       15.3590806180
 Br         0.3560154460        2.4686883100       31.1511806180
  N         7.1348526600        6.4023607400        5.2335019400
  N         4.3470473400        8.2182392600       21.0256019400
  N         0.5197473400       13.7126607400       10.5585980600
  N         3.3075526600        0.9079392600       26.3506980600
  N         3.0136160200        2.0088704400        5.9251959200
  N         0.8136839800       12.6117295600       21.7172959200
  N         4.6409839800        9.3191704400        9.8669040800
  N         6.8409160200        5.3014295600       25.6590040800
  N         1.2369833600       11.0721803800        6.5275066140
  N         2.5903166400        3.5484196200       22.3196066140
  N         6.4176166400        3.7618803800        9.2645933860
  N         5.0642833600       10.8587196200       25.0566933860
 Cl         2.6063913000        6.5098221500        4.5970803100
 Cl         1.2209087000        8.1107778500       20.3891803100
 Cl         5.0482087000       13.8201221500       11.1950196900
 Cl         6.4336913000        0.8004778500       26.9871196900
 Cl         5.0100887920        4.4067950460        6.4975016240
 Cl         6.4718112080       10.2138049540       22.2896016240
 Cl         2.6445112080       11.7170950460        9.2945983760
 Cl         1.1827887920        2.9035049540       25.0866983760
 Cl         1.3309818480        4.4696636260        7.4226028420
 Cl         2.4963181520       10.1509363740       23.2147028420
 Cl         6.3236181520       11.7799636260        8.3694971580
 Cl         5.1582818480        2.8406363740       24.1615971580
 Cl         4.1651740440        6.0890412820        9.7074038700
 Cl         7.3167259560        8.5315587180       25.4995038700
 Cl         3.4894259560       13.3993412820        6.0846961300
 Cl         0.3378740440        1.2212587180       21.8767961300
 Cl         5.0887780800        8.2618086480        6.8057634160
 Cl         6.3931219200        6.3587913520       22.5978634160
 Cl         2.5658219200        0.9515086480        8.9863365840
 Cl         1.2614780800       13.6690913520       24.7784365840
 Cl         1.4781032600        8.1775939920        7.8925757380
 Cl         2.3491967400        6.4430060080       23.6846757380
 Cl         6.1764967400        0.8672939920        7.8995242620
 Cl         5.3054032600       13.7533060080       23.6916242620
     280
 i =       21, E =     -1636.7584933356
 Eu         3.2464689520        6.3516272580        7.1879322360
 Eu         0.5808310480        8.2689727420       22.9800322360
 Eu         4.4081310480       13.6619272580        8.6041677640
 Eu         7.0737689520        0.9586727420       24.3962677640
  H         0.5122083845        6.5532851578        5.0958895478
  H         3.3153025435        8.0674995173       20.8877119862
  H         7.1424860121       13.8632610958       10.6963728378
  H         4.3393106383        0.7564338047       26.4885998351
  H         7.0103493344        5.5554517693        5.8163496895
  H         4.4715810452        9.0651178477       21.6085373313
  H         0.6451832740       12.8659272583        9.9756992122
  H         3.1833784625        1.7550450890       25.7681007611
  H         6.7141192553        7.1849845029        5.7829466892
  H         4.7677043363        7.4354013229       21.5748640952
  H         0.9404332737       14.4959026363       10.0099257420
  H         2.8865445911        0.1253685315       25.8013314313
  H         3.2954491871        1.0074943743        5.8648203768
  H         0.5329240158       13.6134868271       21.6569797052
  H         4.3598266673        8.3174726447        9.9270793250
  H         7.1209321041        6.3034513553       25.7187066085
  H         2.4867138993        2.1027158768        6.8145910706
  H         1.3398107766       12.5173864394       22.6069338324
  H         5.1679467722        9.4133148606        8.9776579986
  H         6.3145123314        5.2059323538       24.7694649325
  H         3.8560536319        2.6164043995        6.0331168586
  H        -0.0295033822       12.0052064868       21.8242777857
  H         3.7981685753        9.9261421611        9.7587096445
  H         7.6844481382        4.6952771797       25.5519047599
  H         6.5160302828       14.5747985114        2.1357042291
  H         4.9656788680        0.0455966448       17.9278376551
  H         1.1385610858        7.2644606558       13.6564511674
  H         2.6886004329        7.3562253256       29.4484744033
  H         1.9520852491       11.8259707739        6.5927671861
  H         1.8742840624        2.7955034522       22.3851732584
  H         5.7002053633        4.5133646402        9.1983473348
  H         5.7805099256       10.1061898202       24.9909194503
  H         1.5492121197       10.2578012950        7.1017131661
  H         2.2801787922        4.3631763257       22.8944239478
  H         6.1089469318        2.9463030959        8.6898030824
  H         5.3745841983       11.6736678830       24.4819917145
  H         0.3593757599       11.4153783076        6.9744053939
  H         3.4675685537        3.2036194135       22.7655217975
  H         7.2943293176        4.1082659675        8.8189375891
  H         4.1871480843       10.5140132613       24.6102083742
  H         1.9767694534        3.5014584265        4.9287738343
  H         1.8506649927       11.1191604419       20.7207629092
  H         5.6778908575       10.8117416143       10.8633240750
  H         5.8041488517        3.8088182546       26.6555012032
  H         5.3603144928        6.1265216133        4.1723061080
  H         6.1215140502        8.4940880600       19.9645944171
  H         2.2942382710       13.4368530196       11.6196728463
  H         1.5330489931        1.1838615405       27.4118117801
  H         4.9741948789       10.4087112654        2.4403583392
  H         6.5076772774        4.2118632385       18.2325105715
  H         2.6803800196        3.0984354813       13.3516852383
  H         1.1469038444       11.5221806875       29.1438247685
  H         4.6971466499        8.2877176988        3.7172127234
  H         6.7845808384        6.3326308993       19.5096692825
  H         2.9572119236        0.9777197311       12.0744643048
  H         0.8699632023       13.6430117795       27.8667705033
  H         2.9333431616        4.4030856257        3.0665402308
  H         0.8943128563       10.2175408199       18.8584922663
  H         4.7213814693       11.7134285314       12.7257646267
  H         6.7604683886        2.9072337282       28.5177616948
  H         7.0326308138       10.7976177168        1.1325092850
  H         4.4492762913        3.8229798584       16.9246109053
  H         0.6219727352        3.4873183107       14.6595905606
  H         3.2053195732       11.1332940156       30.4517118743
  H         0.8948824442        6.9854823146        2.3435256908
  H         2.9322411650        7.6349661526       18.1361865544
  H         6.7595087715       14.2959834739       13.4480612015
  H         4.7223722379        0.3246248287       29.2401856249
  H         5.4214188750       13.8211141456        4.2362203409
  H         6.0598522161        0.7988828559       20.0287536928
  H         2.2320522263        6.5118010295       11.5548659517
  H         1.5944462346        8.1093293441       27.3479131284
  H         3.1406787188        0.1414031804        3.5623432639
  H         0.6870141237       14.4790907996       19.3543812095
  H         4.5144667015        7.4519020657       12.2297846846
  H         6.9677905051        7.1688032773       28.0217937113
  H         2.0196259167       11.7772599972        2.7838815414
  H         1.8076563577        2.8433085372       18.5759969927
  H         5.6349445521        4.4669952233       13.0081770312
  H         5.8469291538       10.1536304792       28.8003163037
  H         4.7805811533        1.9767470639        0.0605126954
  H         6.7012767281       12.6438721841       15.8526361020
  H         2.8740718381        9.2870282802       15.7316119043
  H         0.9532604893        5.3335439042       31.5236969248
  H         6.4070372848       12.0243279200        5.5705087428
  H         5.0749957346        2.5963825434       21.3624975245
  H         1.2476460819        4.7140821065       10.2216179369
  H         2.5796995056        9.9065274418       26.0136842594
  H         0.3702161349        4.9758052777        3.1309040695
  H         3.4570179648        9.6446092267       18.9233960341
  H         7.2843821123       12.2863307989       12.6612499376
  H         4.1975476944        2.3344153255       28.4531436358
  H         6.4673802258        4.8267219008        2.2766012741
  H         5.0142713611        9.7937385623       18.0685709047
  H         1.1872384399       12.1369570366       13.5154786460
  H         2.6401721920        2.4835545269       29.3076440076
  H         6.6744333605        4.0906819205        3.8842770583
  H         4.8075311766       10.5300040847       19.6762299623
  H         0.9799992340       11.4010045142       11.9077207631
  H         2.8470330709        3.2195234859       27.6998381633
  H         4.3132545332       -0.0356130902        1.3901448312
  H         7.1686253422       14.6560585656       17.1820661789
  H         3.3414692890        7.2748833690       14.4023125438
  H         0.4859233569        7.3457502973       30.1942272714
  H         0.3296328374        9.8266528296        5.1232505341
  H         3.4977283110        4.7938947428       20.9154592287
  H         7.3250731652        2.5164382066       10.6688214826
  H         4.1569837421       12.1043001435       26.4609859789
  H         1.0780395675        0.5650016278        4.6987029248
  H         2.7492492579       14.0556545875       20.4916449233
  H         6.5766129675        7.8752946369       11.0933543960
  H         4.9054325412        6.7453504091       26.8846718491
  H         0.2620158010        1.9311769081        3.9243355329
  H         3.5648375545       12.6900949525       19.7158588537
  H         7.3924727208        9.2414534150       11.8678562535
  H         4.0895562315        5.3796899337       27.6602096972
  H         0.3217997716        1.8214056802        5.7029959033
  H         3.5060371554       12.7984273274       21.4946571535
  H         7.3329622473        9.1318368731       10.0892358821
  H         4.1487653108        5.4883406924       25.8815215211
  H         3.1603213039       10.9209708415        4.6061868685
  H         0.6666767304        3.6998857296       20.3995299923
  H         4.4942322180        3.6106524852       11.1854117006
  H         6.9877451669       11.0100394230       26.9775735672
  H         2.3252871106        9.6773119642        3.6254495423
  H         1.5018448547        4.9419914819       19.4169567920
  H         5.3292487003        2.3674399077       12.1668461778
  H         6.1526434807       12.2531719842       27.9589428560
  H         2.7747190182        9.3309425964        5.2982358162
  H         1.0531484658        5.2907011608       21.0893581862
  H         4.8801108597        2.0203597908       10.4940861975
  H         6.6016796768       12.6002583427       26.2861662591
  C         6.9672169200       13.7959981600        2.7446669800
  C         4.5146830800        0.8246018400       18.5367669800
  C         0.6873830800        6.4856981600       13.0474330200
  C         3.1399169200        8.1349018400       28.8395330200
  C         0.4906598600       13.2170224000        2.3659724220
  C         3.3366401400        1.4035776000       18.1580724220
  C         7.1639401400        5.9067224000       13.4261275780
  C         4.3179598600        8.7138776000       29.2182275780
  C         2.1769682400        2.4372540200        4.7584755720
  C         1.6503317600       12.1833459800       20.5505755720
  C         5.4776317600        9.7475540200       11.0336244280
  C         6.0042682400        4.8730459800       26.8257244280
  C         6.4268021600        6.2342238400        3.9148615900
  C         5.0550978400        8.3863761600       19.7069615900
  C         1.2277978400       13.5445238400       11.8772384100
  C         2.5995021600        1.0760761600       27.6693384100
  C         0.4860671000       11.7871277200        4.2878709920
  C         3.3412329000        2.8334722800       20.0799709920
  C         7.1685329000        4.4768277200       11.5042290080
  C         4.3133671000       10.1437722800       27.2963290080
  C         5.7554937400        9.6510580600        2.4300883480
  C         5.7264062600        4.9695419400       18.2221883480
  C         1.8991062600        2.3407580600       13.3620116520
  C         1.9281937400       12.2798419400       29.1541116520
  C         5.6016362800        8.4740997600        3.1401011640
  C         5.8802637200        6.1465002400       18.9322011640
  C         2.0529637200        1.1637997600       12.6519988360
  C         1.7743362800       13.4568002400       28.4440988360
  C         3.2187593000        3.4182962800        2.7007649420
  C         0.6085407000       11.2023037200       18.4928649420
  C         4.4358407000       10.7285962800       13.0913350580
  C         7.0460593000        3.8920037200       28.8834350580
  C         6.9075110400        9.8791394200        1.6976507500
  C         4.5743889600        4.7414605800       17.4897507500
  C         0.7470889600        2.5688394200       14.0944492500
  C         3.0802110400       12.0517605800       29.8865492500
  C         2.9585029000        2.2851997800        3.4537322700
  C         0.8687971000       12.3354002200       19.2458322700
  C         4.6960971000        9.5954997800       12.3383677300
  C         6.7858029000        5.0251002200       28.1304677300
  C         0.0987443400        7.7240629800        2.3669199480
  C         3.7285556600        6.8965370200       18.1590199480
  C         7.5558556600        0.4137629800       13.4251800520
  C         3.9260443400       14.2068370200       29.2172800520
  C         6.3602071400       13.3763869400        3.9126506960
  C         5.1216928600        1.2442130600       19.7047506960
  C         1.2943928600        6.0660869400       11.8794493040
  C         2.5329071400        8.5545130600       27.6715493040
  C         3.3565421000        1.0424487800        2.9891286880
  C         0.4707579000       13.5781512200       18.7812286880
  C         4.2980579000        8.3527487800       12.8029713120
  C         7.1838421000        6.2678512200       28.5950713120
  C         6.5959688200        7.5076781000        3.1069377540
  C         4.8859311800        7.1129219000       18.8990377540
  C         1.0586311800        0.1973781000       12.6851622460
  C         2.7686688200       14.4232219000       28.4772622460
  C         0.2342307600        8.9024833400        1.6692249700
  C         3.5930692400        5.7181166600       17.4613249700
  C         7.4203692400        1.5921833400       14.1228750300
  C         4.0615307600       13.0284166600       29.9149750300
  C         3.8648075400        3.2808626400        1.4705603520
  C         7.6170924600       11.3397373600       17.2626603520
  C         3.7897924600       10.5911626400       14.3215396480
  C         0.0375075400        4.0294373600       30.1136396480
  C         1.0915459600       12.2213595400        3.1299942200
  C         2.7357540400        2.3992404600       18.9220942200
  C         6.5630540400        4.9110595400       12.6621057800
  C         4.9188459600        9.7095404600       28.4542057800
  C         4.2643776600        2.0615046000        1.0148003460
  C         7.2175223400       12.5590954000       16.8069003460
  C         3.3902223400        9.3718046000       14.7772996540
  C         0.4370776600        5.2487954000       30.5693996540
  C         6.9281784600       12.3617173000        4.6744616000
  C         4.5537215400        2.2588827000       20.4665616000
  C         0.7264215400        5.0514173000       11.1176384000
  C         3.1008784600        9.5691827000       26.9097384000
  C         6.9350676000        4.9563834000        3.2610686500
  C         4.5468324000        9.6642166000       19.0531686500
  C         0.7195324000       12.2666834000       12.5310313500
  C         3.1077676000        2.3539166000       28.3231313500
  C         4.0156031600        0.9401045800        1.7671359900
  C         7.4662968400       13.6804954200       17.5592359900
  C         3.6389968400        8.2504045800       14.0249640100
  C         0.1883031600        6.3701954200       29.8170640100
  C         1.0662857800       10.6423347400        5.0983215640
  C         2.7610142200        3.9782652600       20.8904215640
  C         6.5883142200        3.3320347400       10.6937784360
  C         4.8935857800       11.2885652600       26.4858784360
  C         0.8886990600        1.6433554400        4.7780577760
  C         2.9386009400       12.9772445600       20.5701577760
  C         6.7659009400        8.9536554400       11.0140422240
  C         4.7159990600        5.6669445600       26.8061422240
  C         2.4127299200       10.1174552000        4.6261377740
  C         1.4145700800        4.5031448000       20.4182377740
  C         5.2418700800        2.8071552000       11.1659622260
  C         6.2400299200       11.8134448000       26.9580622260
 Br         1.2639275520       13.6812264500        0.7055910280
 Br         2.5633724480        0.9393735500       16.4976910280
 Br         6.3906724480        6.3709264500       15.0865089720
 Br         5.0912275520        8.2496735500       30.8786089720
 Br         1.8240146340        9.1774968260        0.6740068280
 Br         2.0032853660        5.4431031740       16.4661068280
 Br         5.8305853660        1.8671968260       15.1180931720
 Br         5.6513146340       12.7534031740       30.9101931720
 Br         4.1833154460        4.8416116900        0.4330193820
 Br         7.2985845540        9.7789883100       16.2251193820
 Br         3.4712845540       12.1519116900       15.3590806180
 Br         0.3560154460        2.4686883100       31.1511806180
  N         7.1348526600        6.4023607400        5.2335019400
  N         4.3470473400        8.2182392600       21.0256019400
  N         0.5197473400       13.7126607400       10.5585980600
  N         3.3075526600        0.9079392600       26.3506980600
  N         3.0136160200        2.0088704400        5.9251959200
  N         0.8136839800       12.6117295600       21.7172959200
  N         4.6409839800        9.3191704400        9.8669040800
  N         6.8409160200        5.3014295600       25.6590040800
  N         1.2369833600       11.0721803800        6.5275066140
  N         2.5903166400        3.5484196200       22.3196066140
  N         6.4176166400        3.7618803800        9.2645933860
  N         5.0642833600       10.8587196200       25.0566933860
 Cl         2.6063913000        6.5098221500        4.5970803100
 Cl         1.2209087000        8.1107778500       20.3891803100
 Cl         5.0482087000       13.8201221500       11.1950196900
 Cl         6.4336913000        0.8004778500       26.9871196900
 Cl         5.0100887920        4.4067950460        6.4975016240
 Cl         6.4718112080       10.2138049540       22.2896016240
 Cl         2.6445112080       11.7170950460        9.2945983760
 Cl         1.1827887920        2.9035049540       25.0866983760
 Cl         1.3309818480        4.4696636260        7.4226028420
 Cl         2.4963181520       10.1509363740       23.2147028420
 Cl         6.3236181520       11.7799636260        8.3694971580
 Cl         5.1582818480        2.8406363740       24.1615971580
 Cl         4.1651740440        6.0890412820        9.7074038700
 Cl         7.3167259560        8.5315587180       25.4995038700
 Cl         3.4894259560       13.3993412820        6.0846961300
 Cl         0.3378740440        1.2212587180       21.8767961300
 Cl         5.0887780800        8.2618086480        6.8057634160
 Cl         6.3931219200        6.3587913520       22.5978634160
 Cl         2.5658219200        0.9515086480        8.9863365840
 Cl         1.2614780800       13.6690913520       24.7784365840
 Cl         1.4781032600        8.1775939920        7.8925757380
 Cl         2.3491967400        6.4430060080       23.6846757380
 Cl         6.1764967400        0.8672939920        7.8995242620
 Cl         5.3054032600       13.7533060080       23.6916242620
