 DBCSR| CPU Multiplication driver                                           BLAS
 DBCSR| Multrec recursion limit                                              512
 DBCSR| Multiplication stack size                                           1000
 DBCSR| Maximum elements for images                                    UNLIMITED
 DBCSR| Multiplicative factor virtual images                                   1
 DBCSR| Use multiplication densification                                       T
 DBCSR| Multiplication size stacks                                             3
 DBCSR| Use memory pool for CPU allocation                                     F
 DBCSR| Number of 3D layers                                               SINGLE
 DBCSR| Use MPI memory allocation                                              F
 DBCSR| Use RMA algorithm                                                      F
 DBCSR| Use Communication thread                                               T
 DBCSR| Communication thread load                                             15
 DBCSR| MPI: My node id                                                        0
 DBCSR| MPI: Number of nodes                                                   4
 DBCSR| OMP: Current number of threads                                        20
 DBCSR| OMP: Max number of threads                                            20
 DBCSR| Split modifier for TAS multiplication algorithm                  1.0E+00


  **** **** ******  **  PROGRAM STARTED AT               2026-06-03 13:53:13.958
 ***** ** ***  *** **   PROGRAM STARTED ON                       WIN-J3K434GUOOG
 **    ****   ******    PROGRAM STARTED BY                                   cpl
 ***** **    ** ** **   PROGRAM PROCESS ID                                   963
  **** **  *******  **  PROGRAM STARTED IN /mnt/d/CPL_CAL/cp2k_a3eucl6_workflow/
                                           runs/QUVXEO_2401649_R

 CP2K| version string:                                          CP2K version 9.1
 CP2K| source code revision number:                                  git:d8d7100
 CP2K| cp2kflags: omp libint fftw3 libxc elpa parallel mpi3 scalapack spglib    
 CP2K| is freely available from                            https://www.cp2k.org/
 CP2K| Program compiled at                          Sun Jan  9 17:14:22 UTC 2022
 CP2K| Program compiled on                                       lcy02-amd64-025
 CP2K| Program compiled for                                Linux-x86_64-gfortran
 CP2K| Data directory path                                       /usr/share/cp2k
 CP2K| Input file name                                               cellopt.inp

 GLOBAL| Force Environment number                                              1
 GLOBAL| Basis set file name                                       BASIS_A3EUCL6
 GLOBAL| Potential file name                                   POTENTIAL_A3EUCL6
 GLOBAL| MM Potential file name                                     MM_POTENTIAL
 GLOBAL| Coordinate file name                                      __STD_INPUT__
 GLOBAL| Method name                                                        CP2K
 GLOBAL| Project name                                                   QUVXEO_R
 GLOBAL| Run type                                                       CELL_OPT
 GLOBAL| FFT library                                                       FFTW3
 GLOBAL| Diagonalization library                                            ELPA
 GLOBAL| Minimum number of eigenvectors for ELPA usage                        16
 GLOBAL| Orthonormality check for eigenvectors                          DISABLED
 GLOBAL| Matrix multiplication library                                 ScaLAPACK
 GLOBAL| All-to-all communication in single precision                          F
 GLOBAL| FFTs using library dependent lengths                                  F
 GLOBAL| Grid backend                                                       AUTO
 GLOBAL| Global print level                                                  LOW
 GLOBAL| MPI I/O enabled                                                       T
 GLOBAL| Total number of message passing processes                             4
 GLOBAL| Number of threads for this process                                   20
 GLOBAL| This output is from process                                           0
 GLOBAL| Stack size for threads created by OpenMP (OMP_STACKSIZE)        default
 GLOBAL| CPU model name                             Intel(R) Core(TM) i5-14600KF

 MEMORY| system memory details [Kb]
 MEMORY|                        rank 0           min           max       average
 MEMORY| MemTotal             16278588      16278588      16278588      16278588
 MEMORY| MemFree              15158944      15158944      15158944      15158944
 MEMORY| Buffers                  3136          3136          3136          3136
 MEMORY| Cached                 210056        210056        210056        210056
 MEMORY| Slab                   106708        106708        106708        106708
 MEMORY| SReclaimable            27816         27816         27816         27816
 MEMORY| MemLikelyFree        15399952      15399952      15399952      15399952


 GENERATE|  Preliminary Number of Bonds generated:                             0
 GENERATE|  Achieved consistency in connectivity generation.

 *******************************************************************************
 *******************************************************************************
 **                                                                           **
 **     #####                         ##              ##                      **
 **    ##   ##            ##          ##              ##                      **
 **   ##     ##                       ##            ######                    **
 **   ##     ##  ##   ##  ##   #####  ##  ##   ####   ##    #####    #####    **
 **   ##     ##  ##   ##  ##  ##      ## ##   ##      ##   ##   ##  ##   ##   **
 **   ##  ## ##  ##   ##  ##  ##      ####     ###    ##   ######   ######    **
 **    ##  ###   ##   ##  ##  ##      ## ##      ##   ##   ##       ##        **
 **     #######   #####   ##   #####  ##  ##  ####    ##    #####   ##        **
 **           ##                                                    ##        **
 **                                                                           **
 **                                                ... make the atoms dance   **
 **                                                                           **
 **            Copyright (C) by CP2K developers group (2000-2021)             **
 **                      J. Chem. Phys. 152, 194103 (2020)                    **
 **                                                                           **
 *******************************************************************************


 TOTAL NUMBERS AND MAXIMUM NUMBERS

  Total number of            - Atomic kinds:                                   6
                             - Atoms:                                        280
                             - Shell sets:                                   296
                             - Shells:                                      1160
                             - Primitive Cartesian functions:               1388
                             - Cartesian basis functions:                   2920
                             - Spherical basis functions:                   2720

  Maximum angular momentum of- Orbital basis functions:                        3
                             - Local part of the GTH pseudopotential:          2
                             - Non-local part of the GTH pseudopotential:      4


 SCF PARAMETERS         Density guess:                                    ATOMIC
                        --------------------------------------------------------
                        max_scf:                                             120
                        max_scf_history:                                       0
                        max_diis:                                              4
                        --------------------------------------------------------
                        eps_scf:                                        1.00E-06
                        eps_scf_history:                                0.00E+00
                        eps_diis:                                       1.00E-01
                        eps_eigval:                                     1.00E-05
                        --------------------------------------------------------
                        level_shift [a.u.]:                                 0.00
                        --------------------------------------------------------
                        Outer loop SCF in use 
                        No variables optimised in outer loop
                        eps_scf                                         1.00E-06
                        max_scf                                                8
                        No outer loop optimization
                        step_size                                       5.00E-01

 CELL_OPT| Pressure tolerance [bar]:                                       100.0
 CELL_OPT| Keep angles between the cell vectors:                              NO
 CELL_OPT| Keep cell symmetry:                                                NO
 CELL_OPT| Constraint:                                                      NONE

 BFGS| Use rational function optimization for step estimation:                NO
 BFGS| Use model Hessian for initial guess:                                   NO
 BFGS| Restart Hessian:                                                       NO
 BFGS| Trust radius:                                                       0.472

 *******************************************************************************
 ***                     STARTING   CELL   OPTIMIZATION                      ***
 ***                                   BFGS                                  ***
 *******************************************************************************

 CELL| Volume [angstrom^3]:                                          3534.740840
 CELL| Vector a [angstrom]:       7.655     0.000     0.000   |a| =     7.654600
 CELL| Vector b [angstrom]:       0.000    14.621     0.000   |b| =    14.620600
 CELL| Vector c [angstrom]:       0.000     0.000    31.584   |c| =    31.584200
 CELL| Angle (b,c), alpha [degree]:                                    90.000000
 CELL| Angle (a,c), beta  [degree]:                                    90.000000
 CELL| Angle (a,b), gamma [degree]:                                    90.000000
 CELL| Numerically orthorhombic:                                             YES

 Number of electrons:                                                        896
 Number of occupied orbitals:                                                448
 Number of molecular orbitals:                                               448

 Number of orbital functions:                                               2720
 Number of independent orbital functions:                                   2720

 Extrapolation method: initial_guess


 SCF WAVEFUNCTION OPTIMIZATION

  ----------------------------------- OT ---------------------------------------
  Minimizer      : DIIS                : direct inversion
                                         in the iterative subspace
                                         using   7 DIIS vectors
                                         safer DIIS on
  Preconditioner : FULL_SINGLE_INVERSE : inversion of 
                                         H + eS - 2*(Sc)(c^T*H*c+const)(Sc)^T
  Precond_solver : DEFAULT
  stepsize       :    0.08000000                  energy_gap     :    0.08000000
  eps_taylor     :   0.10000E-15                  max_taylor     :             4
  ----------------------------------- OT ---------------------------------------

  Step     Update method      Time    Convergence         Total energy    Change
  ------------------------------------------------------------------------------
     1 OT DIIS     0.80E-01  251.8     0.01817521     -1536.1378143137 -1.54E+03
     2 OT DIIS     0.80E-01   93.0     0.01293132     -1563.5925912470 -2.75E+01
     3 OT DIIS     0.80E-01   83.5     0.00788441     -1586.8231757630 -2.32E+01
     4 OT DIIS     0.80E-01   84.5     0.00690888     -1590.7801520588 -3.96E+00
     5 OT DIIS     0.80E-01   79.6     0.00516556     -1605.7445177077 -1.50E+01
     6 OT DIIS     0.80E-01   79.7     0.00389835     -1612.3374167934 -6.59E+00
     7 OT DIIS     0.80E-01   80.0     0.00320912     -1616.9277076468 -4.59E+00
     8 OT DIIS     0.80E-01   79.8     0.00237346     -1622.4919062258 -5.56E+00
     9 OT DIIS     0.80E-01   81.9     0.00191934     -1625.2466052049 -2.75E+00
    10 OT DIIS     0.80E-01   84.0     0.00154305     -1627.2810564444 -2.03E+00
    11 OT DIIS     0.80E-01   83.7     0.00148485     -1627.7781589496 -4.97E-01
    12 OT DIIS     0.80E-01   86.0     0.00126139     -1628.9668166094 -1.19E+00
    13 OT DIIS     0.80E-01   80.2     0.00105574     -1630.1670564934 -1.20E+00
    14 OT DIIS     0.80E-01   79.9     0.00093095     -1630.6174166198 -4.50E-01
    15 OT DIIS     0.80E-01   80.5     0.00075015     -1631.4227879539 -8.05E-01
    16 OT DIIS     0.80E-01   81.8     0.00067451     -1631.8369810814 -4.14E-01
    17 OT DIIS     0.80E-01   80.1     0.00064510     -1632.2126331790 -3.76E-01
    18 OT DIIS     0.80E-01   79.9     0.00058209     -1632.3638628565 -1.51E-01
    19 OT DIIS     0.80E-01   81.5     0.00054601     -1632.4702203545 -1.06E-01
    20 OT DIIS     0.80E-01   80.8     0.00046108     -1632.8005504126 -3.30E-01
    21 OT DIIS     0.80E-01   78.9     0.00040466     -1633.0553650004 -2.55E-01
    22 OT DIIS     0.80E-01   80.8     0.00038476     -1633.1613158101 -1.06E-01
    23 OT DIIS     0.80E-01   80.0     0.00034517     -1633.3487790849 -1.87E-01
    24 OT DIIS     0.80E-01   80.5     0.00034170     -1633.4040908286 -5.53E-02
    25 OT DIIS     0.80E-01   80.2     0.00032979     -1633.4327708078 -2.87E-02
    26 OT DIIS     0.80E-01   81.8     0.00031536     -1633.5029279156 -7.02E-02
    27 OT DIIS     0.80E-01   80.4     0.00028884     -1633.6346301022 -1.32E-01
    28 OT DIIS     0.80E-01   80.4     0.00027422     -1633.7214248598 -8.68E-02
    29 OT DIIS     0.80E-01   80.2     0.00026680     -1633.7654087844 -4.40E-02
    30 OT DIIS     0.80E-01   87.3     0.00025306     -1633.8879002451 -1.22E-01
    31 OT DIIS     0.80E-01   88.8     0.00024681     -1633.9029168275 -1.50E-02
    32 OT DIIS     0.80E-01   90.4     0.00024350     -1633.9237149580 -2.08E-02
    33 OT DIIS     0.80E-01   86.4     0.00022635     -1634.0280309915 -1.04E-01
    34 OT DIIS     0.80E-01   89.2     0.00021464     -1634.0973708657 -6.93E-02
    35 OT DIIS     0.80E-01   89.0     0.00020448     -1634.1472483610 -4.99E-02
    36 OT SD       0.80E-01   91.2     0.00020171     -1634.1919116786 -4.47E-02
    37 OT DIIS     0.80E-01   89.0     0.00019944     -1634.1958541529 -3.94E-03
    38 OT DIIS     0.80E-01   88.5     0.00018468     -1634.2723492842 -7.65E-02
    39 OT DIIS     0.80E-01   92.7     0.00017469     -1634.3156245191 -4.33E-02
    40 OT DIIS     0.80E-01   88.8     0.00016310     -1634.3629442068 -4.73E-02
    41 OT DIIS     0.80E-01   79.9     0.00016036     -1634.3765292335 -1.36E-02
    42 OT DIIS     0.80E-01   80.2     0.00014588     -1634.4463938883 -6.99E-02
    43 OT DIIS     0.80E-01   79.4     0.00014275     -1634.4583763887 -1.20E-02
    44 OT DIIS     0.80E-01   79.6     0.00013364     -1634.4998793142 -4.15E-02
    45 OT DIIS     0.80E-01   79.1     0.00013240     -1634.5090796424 -9.20E-03
    46 OT DIIS     0.80E-01   85.2     0.00012920     -1634.5199220172 -1.08E-02
    47 OT DIIS     0.80E-01   87.5     0.00012397     -1634.5411530964 -2.12E-02
    48 OT DIIS     0.80E-01   87.4     0.00011985     -1634.5587865217 -1.76E-02
    49 OT DIIS     0.80E-01   87.6     0.00011672     -1634.5734013374 -1.46E-02
    50 OT SD       0.80E-01   89.2     0.00011121     -1634.6047683784 -3.14E-02
    51 OT DIIS     0.80E-01   80.8     0.00011038     -1634.6059692369 -1.20E-03
    52 OT DIIS     0.80E-01   79.1     0.00010721     -1634.6267047823 -2.07E-02
    53 OT DIIS     0.80E-01   79.6     0.00010538     -1634.6322104279 -5.51E-03
    54 OT SD       0.80E-01   80.8     0.00010647     -1634.6478169019 -1.56E-02
    55 OT DIIS     0.80E-01   79.6     0.00010574     -1634.6489177554 -1.10E-03
    56 OT DIIS     0.80E-01   79.7     0.00010199     -1634.6605077772 -1.16E-02
    57 OT DIIS     0.80E-01   78.9     0.00010167     -1634.6645550008 -4.05E-03
    58 OT DIIS     0.80E-01   79.3     0.00010129     -1634.6688012240 -4.25E-03
    59 OT DIIS     0.80E-01   79.3     0.00009833     -1634.6996074602 -3.08E-02
    60 OT DIIS     0.80E-01   79.6     0.00009769     -1634.7045073325 -4.90E-03
    61 OT SD       0.80E-01   80.4     0.00009695     -1634.7317375655 -2.72E-02
    62 OT DIIS     0.80E-01   78.9     0.00009655     -1634.7326517713 -9.14E-04
    63 OT SD       0.80E-01   80.6     0.00009549     -1634.7389312448 -6.28E-03
    64 OT DIIS     0.80E-01   78.7     0.00009529     -1634.7398191062 -8.88E-04
    65 OT DIIS     0.80E-01   79.7     0.00009459     -1634.7590311044 -1.92E-02
    66 OT DIIS     0.80E-01   80.0     0.00009251     -1634.7629539559 -3.92E-03
    67 OT DIIS     0.80E-01   79.5     0.00009173     -1634.7679940711 -5.04E-03
    68 OT DIIS     0.80E-01   79.2     0.00008860     -1634.7880677256 -2.01E-02
    69 OT DIIS     0.80E-01   79.6     0.00008823     -1634.7921603891 -4.09E-03
    70 OT DIIS     0.80E-01   78.5     0.00008770     -1634.7944238921 -2.26E-03
    71 OT SD       0.80E-01   80.7     0.00008196     -1634.8233039227 -2.89E-02
    72 OT DIIS     0.80E-01   79.3     0.00008119     -1634.8239554547 -6.52E-04
    73 OT DIIS     0.80E-01   79.0     0.00007939     -1634.8438746484 -1.99E-02
    74 OT SD       0.80E-01   79.6     0.00006867     -1634.8600354118 -1.62E-02
    75 OT DIIS     0.80E-01   79.0     0.00006801     -1634.8604927105 -4.57E-04
    76 OT SD       0.80E-01   80.0     0.00006733     -1634.8704950639 -1.00E-02
    77 OT DIIS     0.80E-01   79.0     0.00006613     -1634.8709327508 -4.38E-04
    78 OT SD       0.80E-01   79.9     0.00005311     -1634.8943053734 -2.34E-02
    79 OT DIIS     0.80E-01   79.5     0.00005207     -1634.8945774653 -2.72E-04
    80 OT DIIS     0.80E-01   78.8     0.00004588     -1634.9016125771 -7.04E-03
    81 OT DIIS     0.80E-01   79.1     0.00004465     -1634.9033579867 -1.75E-03
    82 OT DIIS     0.80E-01   79.0     0.00004140     -1634.9076582585 -4.30E-03
    83 OT DIIS     0.80E-01   79.6     0.00004009     -1634.9085726832 -9.14E-04
    84 OT DIIS     0.80E-01   80.0     0.00003937     -1634.9093383193 -7.66E-04
    85 OT DIIS     0.80E-01   79.6     0.00003597     -1634.9137099257 -4.37E-03
    86 OT DIIS     0.80E-01   79.8     0.00003489     -1634.9145537780 -8.44E-04
    87 OT DIIS     0.80E-01   79.3     0.00003345     -1634.9157905928 -1.24E-03
    88 OT DIIS     0.80E-01   79.2     0.00003246     -1634.9165973946 -8.07E-04
    89 OT DIIS     0.80E-01   78.7     0.00003000     -1634.9209428011 -4.35E-03
    90 OT DIIS     0.80E-01   79.5     0.00002876     -1634.9219124814 -9.70E-04
    91 OT DIIS     0.80E-01   78.9     0.00002620     -1634.9241375641 -2.23E-03
    92 OT DIIS     0.80E-01   79.3     0.00002664     -1634.9240268413  1.11E-04
    93 OT DIIS     0.80E-01   78.5     0.00002473     -1634.9259084512 -1.88E-03
    94 OT DIIS     0.80E-01   78.8     0.00002437     -1634.9262654281 -3.57E-04
    95 OT DIIS     0.80E-01   78.7     0.00002291     -1634.9283477268 -2.08E-03
    96 OT DIIS     0.80E-01   78.9     0.00002273     -1634.9285454409 -1.98E-04
    97 OT DIIS     0.80E-01   79.3     0.00002245     -1634.9286848684 -1.39E-04
    98 OT DIIS     0.80E-01   79.1     0.00002221     -1634.9291155120 -4.31E-04
    99 OT DIIS     0.80E-01   78.3     0.00002160     -1634.9305282541 -1.41E-03
   100 OT DIIS     0.80E-01   78.8     0.00002136     -1634.9308769118 -3.49E-04
   101 OT DIIS     0.80E-01   79.8     0.00002048     -1634.9317602081 -8.83E-04
   102 OT DIIS     0.80E-01   80.2     0.00001975     -1634.9329212678 -1.16E-03
   103 OT DIIS     0.80E-01   82.5     0.00001957     -1634.9330560247 -1.35E-04
   104 OT DIIS     0.80E-01   87.8     0.00001877     -1634.9350405302 -1.98E-03
   105 OT DIIS     0.80E-01   87.7     0.00001853     -1634.9352517889 -2.11E-04
   106 OT DIIS     0.80E-01   87.9     0.00001828     -1634.9360875622 -8.36E-04
   107 OT DIIS     0.80E-01   88.4     0.00001801     -1634.9368395277 -7.52E-04
   108 OT DIIS     0.80E-01   87.8     0.00001755     -1634.9380536605 -1.21E-03
   109 OT DIIS     0.80E-01   81.5     0.00001722     -1634.9383638269 -3.10E-04
   110 OT DIIS     0.80E-01   79.0     0.00001684     -1634.9394393168 -1.08E-03
   111 OT DIIS     0.80E-01   78.4     0.00001660     -1634.9395280619 -8.87E-05
   112 OT DIIS     0.80E-01   79.8     0.00001603     -1634.9410018642 -1.47E-03
   113 OT DIIS     0.80E-01   79.3     0.00001572     -1634.9412449416 -2.43E-04
   114 OT DIIS     0.80E-01   78.6     0.00001537     -1634.9422009761 -9.56E-04
   115 OT DIIS     0.80E-01   79.4     0.00001502     -1634.9427624208 -5.61E-04
   116 OT DIIS     0.80E-01   79.2     0.00001494     -1634.9428343053 -7.19E-05
   117 OT DIIS     0.80E-01   79.4     0.00001474     -1634.9429354163 -1.01E-04
   118 OT DIIS     0.80E-01   79.4     0.00001439     -1634.9437533060 -8.18E-04
   119 OT DIIS     0.80E-01   79.3     0.00001377     -1634.9451250841 -1.37E-03
   120 OT DIIS     0.80E-01   79.1     0.00001359     -1634.9455672284 -4.42E-04

  Leaving inner SCF loop after reaching   120 steps.


  Electronic density on regular grids:       -895.9999967197        0.0000032803
  Core density on regular grids:              895.9999999260       -0.0000000740
  Total charge density on r-space grids:        0.0000032063
  Total charge density g-space grids:           0.0000032063

  Overlap energy of the core charge distribution:               0.00085868255933
  Self energy of the core charge distribution:              -3531.67332257831958
  Core Hamiltonian energy:                                   1040.41437395101093
  Hartree energy:                                            1253.38387918614308
  Exchange-correlation energy:                               -396.24247720996880
  Dispersion energy:                                           -0.82887925980407

  Total energy:                                             -1634.94556722837933

  outer SCF iter =    1 RMS gradient =   0.14E-04 energy =      -1634.9455672284

  ----------------------------------- OT ---------------------------------------
  Minimizer      : DIIS                : direct inversion
                                         in the iterative subspace
                                         using   7 DIIS vectors
                                         safer DIIS on
  Preconditioner : FULL_SINGLE_INVERSE : inversion of 
                                         H + eS - 2*(Sc)(c^T*H*c+const)(Sc)^T
  Precond_solver : DEFAULT
  stepsize       :    0.08000000                  energy_gap     :    0.08000000
  eps_taylor     :   0.10000E-15                  max_taylor     :             4
  ----------------------------------- OT ---------------------------------------

  Step     Update method      Time    Convergence         Total energy    Change
  ------------------------------------------------------------------------------
     1 OT DIIS     0.80E-01  282.9     0.00024899     -1634.9461145501 -5.47E-04
     2 OT DIIS     0.80E-01   69.2     0.00016173     -1634.9508134467 -4.70E-03
     3 OT DIIS     0.80E-01   81.4     0.00015734     -1634.9533467384 -2.53E-03
     4 OT DIIS     0.80E-01   85.1     0.00010079     -1634.9545604817 -1.21E-03
     5 OT DIIS     0.80E-01   88.3     0.00007907     -1634.9554524893 -8.92E-04
     6 OT DIIS     0.80E-01   90.1     0.00007311     -1634.9561114842 -6.59E-04
     7 OT DIIS     0.80E-01   99.9     0.00006878     -1634.9568200834 -7.09E-04
     8 OT DIIS     0.80E-01   98.1     0.00006756     -1634.9574470344 -6.27E-04
     9 OT DIIS     0.80E-01   99.2     0.00006594     -1634.9580974532 -6.50E-04
    10 OT DIIS     0.80E-01   83.8     0.00006386     -1634.9593739142 -1.28E-03
    11 OT DIIS     0.80E-01   79.0     0.00006051     -1634.9612778421 -1.90E-03
    12 OT DIIS     0.80E-01   76.0     0.00005394     -1634.9635322294 -2.25E-03
    13 OT DIIS     0.80E-01   76.1     0.00005045     -1634.9647298155 -1.20E-03
    14 OT DIIS     0.80E-01   76.2     0.00004693     -1634.9652397792 -5.10E-04
    15 OT DIIS     0.80E-01   77.3     0.00004423     -1634.9658609105 -6.21E-04
    16 OT DIIS     0.80E-01   78.0     0.00004220     -1634.9665016650 -6.41E-04
    17 OT DIIS     0.80E-01   76.3     0.00004000     -1634.9672226813 -7.21E-04
    18 OT DIIS     0.80E-01   76.8     0.00003717     -1634.9680975291 -8.75E-04
    19 OT DIIS     0.80E-01   76.7     0.00003375     -1634.9687607139 -6.63E-04
    20 OT DIIS     0.80E-01   76.3     0.00003214     -1634.9692018500 -4.41E-04
    21 OT DIIS     0.80E-01   76.6     0.00003120     -1634.9696134083 -4.12E-04
    22 OT DIIS     0.80E-01   76.7     0.00002860     -1634.9700512470 -4.38E-04
    23 OT DIIS     0.80E-01   76.7     0.00002632     -1634.9703921279 -3.41E-04
    24 OT DIIS     0.80E-01   77.2     0.00002522     -1634.9706136250 -2.21E-04
    25 OT DIIS     0.80E-01   75.8     0.00002439     -1634.9708312508 -2.18E-04
    26 OT DIIS     0.80E-01   76.7     0.00002325     -1634.9710815984 -2.50E-04
    27 OT DIIS     0.80E-01   76.1     0.00002232     -1634.9712759963 -1.94E-04
    28 OT DIIS     0.80E-01   77.0     0.00002184     -1634.9714228746 -1.47E-04
    29 OT DIIS     0.80E-01   76.9     0.00002133     -1634.9715475684 -1.25E-04
    30 OT DIIS     0.80E-01   76.8     0.00002080     -1634.9716923169 -1.45E-04
    31 OT DIIS     0.80E-01   76.5     0.00002050     -1634.9718166687 -1.24E-04
    32 OT DIIS     0.80E-01   76.4     0.00002029     -1634.9719307666 -1.14E-04
    33 OT DIIS     0.80E-01   77.2     0.00002002     -1634.9720547598 -1.24E-04
    34 OT DIIS     0.80E-01   77.2     0.00001979     -1634.9721612953 -1.07E-04
    35 OT DIIS     0.80E-01   77.0     0.00001971     -1634.9722373659 -7.61E-05
    36 OT DIIS     0.80E-01   76.4     0.00001969     -1634.9723138354 -7.65E-05
    37 OT DIIS     0.80E-01   76.3     0.00001963     -1634.9723879512 -7.41E-05
    38 OT DIIS     0.80E-01   76.7     0.00001959     -1634.9724429606 -5.50E-05
    39 OT DIIS     0.80E-01   76.4     0.00001959     -1634.9724722234 -2.93E-05
    40 OT DIIS     0.80E-01   76.4     0.00001959     -1634.9724906397 -1.84E-05
    41 OT SD       0.80E-01   78.0     0.00001959     -1634.9724925471 -1.91E-06
    42 OT SD       0.80E-01   78.0     0.00001961     -1634.9725299781 -3.74E-05
    43 OT SD       0.80E-01   77.8     0.00001963     -1634.9725674422 -3.75E-05
    44 OT SD       0.80E-01   77.8     0.00001971     -1634.9726049358 -3.75E-05
    45 OT SD       0.80E-01   77.6     0.00001996     -1634.9726423893 -3.75E-05
    46 OT SD       0.80E-01   77.9     0.00002092     -1634.9726794608 -3.71E-05
    47 OT SD       0.80E-01   78.4     0.00002449     -1634.9727146643 -3.52E-05
    48 OT SD       0.80E-01   78.1     0.00003583     -1634.9727416700 -2.70E-05
    49 OT SD       0.80E-01   77.7     0.00006464     -1634.9727335819  8.09E-06
    50 OT SD       0.80E-01   77.9     0.00012838     -1634.9725759475  1.58E-04
    51 OT DIIS     0.80E-01   76.6     0.00026250     -1634.9717806519  7.95E-04
    52 OT SD       0.80E-01   77.4     0.00001984     -1634.9719720948 -1.91E-04
    53 OT SD       0.80E-01   78.0     0.00001936     -1634.9720081715 -3.61E-05
    54 OT SD       0.80E-01   78.1     0.00001960     -1634.9720428489 -3.47E-05
    55 OT SD       0.80E-01   78.0     0.00002092     -1634.9720765042 -3.37E-05
    56 OT SD       0.80E-01   78.0     0.00002570     -1634.9721072814 -3.08E-05
    57 OT DIIS     0.80E-01   79.9     0.00004008     -1634.9721265000 -1.92E-05
    58 OT DIIS     0.80E-01   80.2     0.00001870     -1634.9722635629 -1.37E-04
    59 OT DIIS     0.80E-01   80.5     0.00001869     -1634.9723437272 -8.02E-05
    60 OT SD       0.80E-01   79.9     0.00001869     -1634.9723655760 -2.18E-05
    61 OT SD       0.80E-01   80.3     0.00001870     -1634.9723996199 -3.40E-05
    62 OT SD       0.80E-01   80.7     0.00001872     -1634.9724336995 -3.41E-05
    63 OT SD       0.80E-01   79.8     0.00001879     -1634.9724678149 -3.41E-05
    64 OT SD       0.80E-01   80.4     0.00001901     -1634.9725019099 -3.41E-05
    65 OT SD       0.80E-01   81.3     0.00001986     -1634.9725356938 -3.38E-05
    66 OT SD       0.80E-01   80.0     0.00002318     -1634.9725678519 -3.22E-05
    67 OT SD       0.80E-01   80.8     0.00003405     -1634.9725925734 -2.47E-05
    68 OT SD       0.80E-01   79.7     0.00006238     -1634.9725842362  8.34E-06
    69 OT SD       0.80E-01   78.0     0.00012625     -1634.9724296579  1.55E-04
    70 OT DIIS     0.80E-01   78.9     0.00026314     -1634.9716276759  8.02E-04
    71 OT SD       0.80E-01   79.0     0.00002045     -1634.9716608855 -3.32E-05
    72 OT SD       0.80E-01   77.5     0.00001956     -1634.9716965239 -3.56E-05
    73 OT SD       0.80E-01   78.9     0.00002072     -1634.9717285498 -3.20E-05
    74 OT SD       0.80E-01   93.0     0.00002589     -1634.9717566721 -2.81E-05
    75 OT SD       0.80E-01   91.2     0.00004118     -1634.9717719229 -1.53E-05
    76 OT DIIS     0.80E-01   90.3     0.00007805     -1634.9717336522  3.83E-05
    77 OT DIIS     0.80E-01   82.4     0.00001783     -1634.9719183916 -1.85E-04
    78 OT DIIS     0.80E-01   86.8     0.00001776     -1634.9720533460 -1.35E-04
    79 OT DIIS     0.80E-01   86.4     0.00001772     -1634.9721677483 -1.14E-04
    80 OT DIIS     0.80E-01   84.4     0.00001770     -1634.9722202242 -5.25E-05
    81 OT SD       0.80E-01   83.9     0.00001769     -1634.9722720332 -5.18E-05
    82 OT SD       0.80E-01   88.1     0.00001770     -1634.9723025511 -3.05E-05
    83 OT SD       0.80E-01   91.9     0.00001772     -1634.9723330984 -3.05E-05
