 DBCSR| CPU Multiplication driver                                           BLAS
 DBCSR| Multrec recursion limit                                              512
 DBCSR| Multiplication stack size                                           1000
 DBCSR| Maximum elements for images                                    UNLIMITED
 DBCSR| Multiplicative factor virtual images                                   1
 DBCSR| Use multiplication densification                                       T
 DBCSR| Multiplication size stacks                                             3
 DBCSR| Use memory pool for CPU allocation                                     F
 DBCSR| Number of 3D layers                                               SINGLE
 DBCSR| Use MPI memory allocation                                              F
 DBCSR| Use RMA algorithm                                                      F
 DBCSR| Use Communication thread                                               T
 DBCSR| Communication thread load                                             87
 DBCSR| MPI: My node id                                                        0
 DBCSR| MPI: Number of nodes                                                   6
 DBCSR| OMP: Current number of threads                                         1
 DBCSR| OMP: Max number of threads                                             1
 DBCSR| Split modifier for TAS multiplication algorithm                  1.0E+00


  **** **** ******  **  PROGRAM STARTED AT               2026-06-03 18:38:05.209
 ***** ** ***  *** **   PROGRAM STARTED ON                       WIN-J3K434GUOOG
 **    ****   ******    PROGRAM STARTED BY                                   cpl
 ***** **    ** ** **   PROGRAM PROCESS ID                                  1557
  **** **  *******  **  PROGRAM STARTED IN /mnt/d/CPL_CAL/cp2k_a3eucl6_workflow/
                                           runs/QUVXEO_2401649_R_geo_preopt

 CP2K| version string:                                          CP2K version 9.1
 CP2K| source code revision number:                                  git:d8d7100
 CP2K| cp2kflags: omp libint fftw3 libxc elpa parallel mpi3 scalapack spglib    
 CP2K| is freely available from                            https://www.cp2k.org/
 CP2K| Program compiled at                          Sun Jan  9 17:14:22 UTC 2022
 CP2K| Program compiled on                                       lcy02-amd64-025
 CP2K| Program compiled for                                Linux-x86_64-gfortran
 CP2K| Data directory path                                       /usr/share/cp2k
 CP2K| Input file name                                               cellopt.inp

 GLOBAL| Force Environment number                                              1
 GLOBAL| Basis set file name                                       BASIS_A3EUCL6
 GLOBAL| Potential file name                                   POTENTIAL_A3EUCL6
 GLOBAL| MM Potential file name                                     MM_POTENTIAL
 GLOBAL| Coordinate file name                                      __STD_INPUT__
 GLOBAL| Method name                                                        CP2K
 GLOBAL| Project name                                               QUVXEO_R_GEO
 GLOBAL| Run type                                                        GEO_OPT
 GLOBAL| FFT library                                                       FFTW3
 GLOBAL| Diagonalization library                                            ELPA
 GLOBAL| Minimum number of eigenvectors for ELPA usage                        16
 GLOBAL| Orthonormality check for eigenvectors                          DISABLED
 GLOBAL| Matrix multiplication library                                 ScaLAPACK
 GLOBAL| All-to-all communication in single precision                          F
 GLOBAL| FFTs using library dependent lengths                                  F
 GLOBAL| Grid backend                                                       AUTO
 GLOBAL| Global print level                                                  LOW
 GLOBAL| MPI I/O enabled                                                       T
 GLOBAL| Total number of message passing processes                             6
 GLOBAL| Number of threads for this process                                    1
 GLOBAL| This output is from process                                           0
 GLOBAL| Stack size for threads created by OpenMP (OMP_STACKSIZE)        default
 GLOBAL| CPU model name                             Intel(R) Core(TM) i5-14600KF

 MEMORY| system memory details [Kb]
 MEMORY|                        rank 0           min           max       average
 MEMORY| MemTotal             16278588      16278588      16278588      16278588
 MEMORY| MemFree              14973672      14973672      14973672      14973672
 MEMORY| Buffers                  3952          3952          3952          3952
 MEMORY| Cached                 233584        233584        233584        233584
 MEMORY| Slab                   107000        107000        107000        107000
 MEMORY| SReclaimable            27748         27748         27748         27748
 MEMORY| MemLikelyFree        15238956      15238956      15238956      15238956


 GENERATE|  Preliminary Number of Bonds generated:                             0
 GENERATE|  Achieved consistency in connectivity generation.

 *******************************************************************************
 *******************************************************************************
 **                                                                           **
 **     #####                         ##              ##                      **
 **    ##   ##            ##          ##              ##                      **
 **   ##     ##                       ##            ######                    **
 **   ##     ##  ##   ##  ##   #####  ##  ##   ####   ##    #####    #####    **
 **   ##     ##  ##   ##  ##  ##      ## ##   ##      ##   ##   ##  ##   ##   **
 **   ##  ## ##  ##   ##  ##  ##      ####     ###    ##   ######   ######    **
 **    ##  ###   ##   ##  ##  ##      ## ##      ##   ##   ##       ##        **
 **     #######   #####   ##   #####  ##  ##  ####    ##    #####   ##        **
 **           ##                                                    ##        **
 **                                                                           **
 **                                                ... make the atoms dance   **
 **                                                                           **
 **            Copyright (C) by CP2K developers group (2000-2021)             **
 **                      J. Chem. Phys. 152, 194103 (2020)                    **
 **                                                                           **
 *******************************************************************************


 TOTAL NUMBERS AND MAXIMUM NUMBERS

  Total number of            - Atomic kinds:                                   6
                             - Atoms:                                        280
                             - Shell sets:                                   296
                             - Shells:                                      1160
                             - Primitive Cartesian functions:               1388
                             - Cartesian basis functions:                   2920
                             - Spherical basis functions:                   2720

  Maximum angular momentum of- Orbital basis functions:                        3
                             - Local part of the GTH pseudopotential:          2
                             - Non-local part of the GTH pseudopotential:      4


 SCF PARAMETERS         Density guess:                                    ATOMIC
                        --------------------------------------------------------
                        max_scf:                                             200
                        max_scf_history:                                       0
                        max_diis:                                              4
                        --------------------------------------------------------
                        eps_scf:                                        1.00E-05
                        eps_scf_history:                                0.00E+00
                        eps_diis:                                       1.00E-01
                        eps_eigval:                                     1.00E-05
                        --------------------------------------------------------
                        level_shift [a.u.]:                                 0.00
                        --------------------------------------------------------
                        Outer loop SCF in use 
                        No variables optimised in outer loop
                        eps_scf                                         1.00E-05
                        max_scf                                                8
                        No outer loop optimization
                        step_size                                       5.00E-01

 BFGS| Use rational function optimization for step estimation:                NO
 BFGS| Use model Hessian for initial guess:                                  YES
 BFGS| Restart Hessian:                                                       NO
 BFGS| Trust radius:                                                       0.472

 *******************************************************************************
 ***                     STARTING GEOMETRY OPTIMIZATION                      ***
 ***                                   BFGS                                  ***
 *******************************************************************************

 Number of electrons:                                                        896
 Number of occupied orbitals:                                                448
 Number of molecular orbitals:                                               448

 Number of orbital functions:                                               2720
 Number of independent orbital functions:                                   2720

 Extrapolation method: initial_guess


 SCF WAVEFUNCTION OPTIMIZATION

  ----------------------------------- OT ---------------------------------------
  Minimizer      : DIIS                : direct inversion
                                         in the iterative subspace
                                         using   7 DIIS vectors
                                         safer DIIS on
  Preconditioner : FULL_SINGLE_INVERSE : inversion of 
                                         H + eS - 2*(Sc)(c^T*H*c+const)(Sc)^T
  Precond_solver : DEFAULT
  stepsize       :    0.08000000                  energy_gap     :    0.08000000
  eps_taylor     :   0.10000E-15                  max_taylor     :             4
  ----------------------------------- OT ---------------------------------------

  Step     Update method      Time    Convergence         Total energy    Change
  ------------------------------------------------------------------------------
     1 OT DIIS     0.80E-01    5.4     0.01817521     -1536.1378143137 -1.54E+03
     2 OT DIIS     0.80E-01    4.0     0.01293132     -1563.5925912470 -2.75E+01
     3 OT DIIS     0.80E-01    4.0     0.00788441     -1586.8231757630 -2.32E+01
     4 OT DIIS     0.80E-01    4.0     0.00690888     -1590.7801520588 -3.96E+00
     5 OT DIIS     0.80E-01    4.2     0.00516556     -1605.7445177077 -1.50E+01
     6 OT DIIS     0.80E-01    4.3     0.00389835     -1612.3374167934 -6.59E+00
     7 OT DIIS     0.80E-01    4.1     0.00320912     -1616.9277076468 -4.59E+00
     8 OT DIIS     0.80E-01    4.1     0.00237346     -1622.4919062258 -5.56E+00
     9 OT DIIS     0.80E-01    4.2     0.00191934     -1625.2466052049 -2.75E+00
    10 OT DIIS     0.80E-01    4.0     0.00154305     -1627.2810564444 -2.03E+00
    11 OT DIIS     0.80E-01    4.1     0.00148485     -1627.7781589496 -4.97E-01
    12 OT DIIS     0.80E-01    4.1     0.00126139     -1628.9668166094 -1.19E+00
    13 OT DIIS     0.80E-01    4.3     0.00105574     -1630.1670564934 -1.20E+00
    14 OT DIIS     0.80E-01    4.2     0.00093095     -1630.6174166198 -4.50E-01
    15 OT DIIS     0.80E-01    4.2     0.00075015     -1631.4227879539 -8.05E-01
    16 OT DIIS     0.80E-01    3.7     0.00067451     -1631.8369810814 -4.14E-01
    17 OT DIIS     0.80E-01    3.7     0.00064510     -1632.2126331790 -3.76E-01
    18 OT DIIS     0.80E-01    4.2     0.00058209     -1632.3638628565 -1.51E-01
    19 OT DIIS     0.80E-01    4.2     0.00054601     -1632.4702203545 -1.06E-01
    20 OT DIIS     0.80E-01    4.6     0.00046108     -1632.8005504126 -3.30E-01
    21 OT DIIS     0.80E-01    4.4     0.00040466     -1633.0553650004 -2.55E-01
    22 OT DIIS     0.80E-01    4.1     0.00038476     -1633.1613158101 -1.06E-01
    23 OT DIIS     0.80E-01    4.2     0.00034517     -1633.3487790849 -1.87E-01
    24 OT DIIS     0.80E-01    4.1     0.00034170     -1633.4040908286 -5.53E-02
    25 OT DIIS     0.80E-01    4.1     0.00032979     -1633.4327708078 -2.87E-02
    26 OT DIIS     0.80E-01    4.2     0.00031536     -1633.5029279156 -7.02E-02
    27 OT DIIS     0.80E-01    4.2     0.00028884     -1633.6346301023 -1.32E-01
    28 OT DIIS     0.80E-01    4.2     0.00027422     -1633.7214248598 -8.68E-02
    29 OT DIIS     0.80E-01    3.9     0.00026680     -1633.7654087844 -4.40E-02
    30 OT DIIS     0.80E-01    4.1     0.00025306     -1633.8879002451 -1.22E-01
    31 OT DIIS     0.80E-01    4.2     0.00024681     -1633.9029168275 -1.50E-02
    32 OT DIIS     0.80E-01    4.5     0.00024350     -1633.9237149580 -2.08E-02
    33 OT DIIS     0.80E-01    4.1     0.00022635     -1634.0280309917 -1.04E-01
    34 OT DIIS     0.80E-01    4.2     0.00021464     -1634.0973708658 -6.93E-02
    35 OT DIIS     0.80E-01    4.2     0.00020448     -1634.1472483610 -4.99E-02
    36 OT SD       0.80E-01    4.2     0.00020171     -1634.1919116786 -4.47E-02
    37 OT DIIS     0.80E-01    4.1     0.00019944     -1634.1958541529 -3.94E-03
    38 OT DIIS     0.80E-01    4.1     0.00018468     -1634.2723492847 -7.65E-02
    39 OT DIIS     0.80E-01    3.8     0.00017469     -1634.3156245193 -4.33E-02
    40 OT DIIS     0.80E-01    4.3     0.00016310     -1634.3629442062 -4.73E-02
    41 OT DIIS     0.80E-01    3.6     0.00016036     -1634.3765292331 -1.36E-02
    42 OT DIIS     0.80E-01    3.7     0.00014588     -1634.4463938897 -6.99E-02
    43 OT DIIS     0.80E-01    4.0     0.00014275     -1634.4583763891 -1.20E-02
    44 OT DIIS     0.80E-01    4.0     0.00013364     -1634.4998793064 -4.15E-02
    45 OT DIIS     0.80E-01    3.6     0.00013240     -1634.5090796343 -9.20E-03
    46 OT DIIS     0.80E-01    3.4     0.00012920     -1634.5199220111 -1.08E-02
    47 OT DIIS     0.80E-01    3.4     0.00012397     -1634.5411530904 -2.12E-02
    48 OT DIIS     0.80E-01    3.9     0.00011985     -1634.5587864782 -1.76E-02
    49 OT DIIS     0.80E-01    3.9     0.00011672     -1634.5734013859 -1.46E-02
    50 OT SD       0.80E-01    4.0     0.00011121     -1634.6047682645 -3.14E-02
    51 OT DIIS     0.80E-01    3.9     0.00011038     -1634.6059691234 -1.20E-03
    52 OT DIIS     0.80E-01    3.9     0.00010721     -1634.6267046397 -2.07E-02
    53 OT DIIS     0.80E-01    3.9     0.00010538     -1634.6322103162 -5.51E-03
    54 OT SD       0.80E-01    3.7     0.00010647     -1634.6478167776 -1.56E-02
    55 OT DIIS     0.80E-01    3.9     0.00010574     -1634.6489176313 -1.10E-03
    56 OT DIIS     0.80E-01    3.8     0.00010199     -1634.6605076592 -1.16E-02
    57 OT DIIS     0.80E-01    3.9     0.00010167     -1634.6645548805 -4.05E-03
    58 OT DIIS     0.80E-01    4.0     0.00010129     -1634.6688010491 -4.25E-03
    59 OT DIIS     0.80E-01    3.7     0.00009833     -1634.6996072757 -3.08E-02
    60 OT DIIS     0.80E-01    3.8     0.00009769     -1634.7045071375 -4.90E-03
    61 OT SD       0.80E-01    3.8     0.00009695     -1634.7317375965 -2.72E-02
    62 OT DIIS     0.80E-01    4.0     0.00009655     -1634.7326518023 -9.14E-04
    63 OT SD       0.80E-01    3.9     0.00009549     -1634.7389313506 -6.28E-03
    64 OT DIIS     0.80E-01    3.9     0.00009529     -1634.7398192116 -8.88E-04
    65 OT DIIS     0.80E-01    3.7     0.00009459     -1634.7590313923 -1.92E-02
    66 OT DIIS     0.80E-01    4.0     0.00009251     -1634.7629541651 -3.92E-03
    67 OT DIIS     0.80E-01    3.9     0.00009173     -1634.7679943360 -5.04E-03
    68 OT DIIS     0.80E-01    4.1     0.00008860     -1634.7880681409 -2.01E-02
    69 OT DIIS     0.80E-01    4.1     0.00008823     -1634.7921607870 -4.09E-03
    70 OT DIIS     0.80E-01    3.7     0.00008770     -1634.7944244914 -2.26E-03
    71 OT SD       0.80E-01    3.9     0.00008196     -1634.8233059978 -2.89E-02
    72 OT DIIS     0.80E-01    3.8     0.00008119     -1634.8239575233 -6.52E-04
    73 OT DIIS     0.80E-01    4.0     0.00007937     -1634.8438970296 -1.99E-02
    74 OT SD       0.80E-01    3.8     0.00006865     -1634.8600822842 -1.62E-02
    75 OT DIIS     0.80E-01    3.8     0.00006798     -1634.8605392869 -4.57E-04
    76 OT SD       0.80E-01    3.9     0.00006730     -1634.8705247228 -9.99E-03
    77 OT DIIS     0.80E-01    3.8     0.00006611     -1634.8709620956 -4.37E-04
    78 OT SD       0.80E-01    3.7     0.00005309     -1634.8943219319 -2.34E-02
    79 OT DIIS     0.80E-01    3.6     0.00005205     -1634.8945938277 -2.72E-04
    80 OT DIIS     0.80E-01    3.5     0.00004588     -1634.9016200490 -7.03E-03
    81 OT DIIS     0.80E-01    3.5     0.00004464     -1634.9033699455 -1.75E-03
    82 OT DIIS     0.80E-01    3.7     0.00004142     -1634.9076477214 -4.28E-03
    83 OT DIIS     0.80E-01    3.6     0.00004010     -1634.9085685254 -9.21E-04
    84 OT DIIS     0.80E-01    3.8     0.00003937     -1634.9093358640 -7.67E-04
    85 OT DIIS     0.80E-01    3.6     0.00003597     -1634.9137150158 -4.38E-03
    86 OT DIIS     0.80E-01    3.7     0.00003490     -1634.9145540198 -8.39E-04
    87 OT DIIS     0.80E-01    4.0     0.00003347     -1634.9157909867 -1.24E-03
    88 OT DIIS     0.80E-01    3.8     0.00003244     -1634.9166171923 -8.26E-04
    89 OT DIIS     0.80E-01    4.0     0.00003010     -1634.9208130060 -4.20E-03
    90 OT DIIS     0.80E-01    4.2     0.00002882     -1634.9218565493 -1.04E-03
    91 OT DIIS     0.80E-01    4.0     0.00002625     -1634.9241000288 -2.24E-03
    92 OT DIIS     0.80E-01    3.8     0.00002666     -1634.9240526878  4.73E-05
    93 OT DIIS     0.80E-01    3.6     0.00002492     -1634.9257574293 -1.70E-03
    94 OT DIIS     0.80E-01    3.7     0.00002461     -1634.9260395414 -2.82E-04
    95 OT DIIS     0.80E-01    3.7     0.00002332     -1634.9278300994 -1.79E-03
    96 OT SD       0.80E-01    4.0     0.00002305     -1634.9281469279 -3.17E-04
    97 OT DIIS     0.80E-01    3.8     0.00002291     -1634.9281985644 -5.16E-05
    98 OT DIIS     0.80E-01    3.6     0.00002096     -1634.9311781863 -2.98E-03
    99 OT DIIS     0.80E-01    4.1     0.00002078     -1634.9314137492 -2.36E-04
   100 OT DIIS     0.80E-01    3.9     0.00002032     -1634.9322596660 -8.46E-04
   101 OT DIIS     0.80E-01    4.0     0.00001995     -1634.9325877193 -3.28E-04
   102 OT DIIS     0.80E-01    3.6     0.00001962     -1634.9329640056 -3.76E-04
   103 OT DIIS     0.80E-01    4.3     0.00001941     -1634.9332885398 -3.25E-04
   104 OT DIIS     0.80E-01    3.8     0.00001873     -1634.9350885189 -1.80E-03
   105 OT DIIS     0.80E-01    4.2     0.00001843     -1634.9356359857 -5.47E-04
   106 OT DIIS     0.80E-01    3.8     0.00001749     -1634.9370967815 -1.46E-03
   107 OT DIIS     0.80E-01    3.8     0.00001702     -1634.9376485863 -5.52E-04
   108 OT DIIS     0.80E-01    3.9     0.00001683     -1634.9379507548 -3.02E-04
   109 OT DIIS     0.80E-01    4.1     0.00001586     -1634.9400263977 -2.08E-03
   110 OT DIIS     0.80E-01    3.9     0.00001548     -1634.9408821061 -8.56E-04
   111 OT DIIS     0.80E-01    3.9     0.00001522     -1634.9418392660 -9.57E-04
   112 OT DIIS     0.80E-01    4.0     0.00001498     -1634.9423073178 -4.68E-04
   113 OT DIIS     0.80E-01    3.9     0.00001482     -1634.9425227083 -2.15E-04
   114 OT DIIS     0.80E-01    3.9     0.00001471     -1634.9425352034 -1.25E-05
   115 OT DIIS     0.80E-01    3.9     0.00001421     -1634.9436542517 -1.12E-03
   116 OT DIIS     0.80E-01    3.8     0.00001400     -1634.9442471428 -5.93E-04
   117 OT DIIS     0.80E-01    3.7     0.00001383     -1634.9448966044 -6.49E-04
   118 OT DIIS     0.80E-01    3.8     0.00001356     -1634.9457893516 -8.93E-04
   119 OT DIIS     0.80E-01    3.6     0.00001346     -1634.9459945661 -2.05E-04
   120 OT DIIS     0.80E-01    4.0     0.00001287     -1634.9472519666 -1.26E-03
   121 OT DIIS     0.80E-01    3.7     0.00001277     -1634.9474453007 -1.93E-04
   122 OT DIIS     0.80E-01    3.9     0.00001259     -1634.9480139624 -5.69E-04
   123 OT SD       0.80E-01    3.7     0.00001252     -1634.9482220845 -2.08E-04
   124 OT DIIS     0.80E-01    3.8     0.00001248     -1634.9482373299 -1.52E-05
   125 OT DIIS     0.80E-01    3.7     0.00001198     -1634.9490859109 -8.49E-04
   126 OT DIIS     0.80E-01    3.6     0.00001193     -1634.9491351089 -4.92E-05
   127 OT DIIS     0.80E-01    3.6     0.00001176     -1634.9492516422 -1.17E-04
   128 OT DIIS     0.80E-01    3.5     0.00001171     -1634.9493826410 -1.31E-04
   129 OT DIIS     0.80E-01    3.6     0.00001146     -1634.9502756816 -8.93E-04
   130 OT DIIS     0.80E-01    3.6     0.00001142     -1634.9503872976 -1.12E-04
   131 OT DIIS     0.80E-01    3.8     0.00001127     -1634.9510677306 -6.80E-04
   132 OT DIIS     0.80E-01    3.7     0.00001121     -1634.9511682290 -1.00E-04
   133 OT DIIS     0.80E-01    3.8     0.00001116     -1634.9512620679 -9.38E-05
   134 OT DIIS     0.80E-01    3.6     0.00001085     -1634.9523323630 -1.07E-03
   135 OT DIIS     0.80E-01    3.8     0.00001080     -1634.9524548963 -1.23E-04
   136 OT SD       0.80E-01    3.8     0.00001055     -1634.9537935537 -1.34E-03
   137 OT DIIS     0.80E-01    3.9     0.00001051     -1634.9538043805 -1.08E-05
   138 OT DIIS     0.80E-01    3.7     0.00001023     -1634.9548918598 -1.09E-03
   139 OT DIIS     0.80E-01    3.9     0.00001014     -1634.9549565053 -6.46E-05
   140 OT DIIS     0.80E-01    3.7     0.00000988     -1634.9559381882 -9.82E-04

  *** SCF run converged in   140 steps ***


  Electronic density on regular grids:       -895.9999968984        0.0000031016
  Core density on regular grids:              895.9999999260       -0.0000000740
  Total charge density on r-space grids:        0.0000030276
  Total charge density g-space grids:           0.0000030276

  Overlap energy of the core charge distribution:               0.00085868255933
  Self energy of the core charge distribution:              -3531.67332257831958
  Core Hamiltonian energy:                                   1040.41097955000782
  Hartree energy:                                            1253.38511298016556
  Exchange-correlation energy:                               -396.25068756280393
  Dispersion energy:                                           -0.82887925980407

  Total energy:                                             -1634.95593818819475

  outer SCF iter =    1 RMS gradient =   0.99E-05 energy =      -1634.9559381882
  outer SCF loop converged in   1 iterations or  140 steps


 ENERGY| Total FORCE_EVAL ( QS ) energy [a.u.]:            -1634.956338334581460

 --------  Informations at step =     0 ------------
  Optimization Method        =                 BFGS
  Total Energy               =     -1634.9563383346
  Used time                  =              558.214
 ---------------------------------------------------

 --------------------------
 OPTIMIZATION STEP:      1
 --------------------------

  Step is scaled; Scaling factor =  0.94617

 Number of electrons:                                                        896
 Number of occupied orbitals:                                                448
 Number of molecular orbitals:                                               448

 Number of orbital functions:                                               2720
 Number of independent orbital functions:                                   2720

 Extrapolation method: ASPC


 SCF WAVEFUNCTION OPTIMIZATION

  ----------------------------------- OT ---------------------------------------
  Minimizer      : DIIS                : direct inversion
                                         in the iterative subspace
                                         using   7 DIIS vectors
                                         safer DIIS on
  Preconditioner : FULL_SINGLE_INVERSE : inversion of 
                                         H + eS - 2*(Sc)(c^T*H*c+const)(Sc)^T
  Precond_solver : DEFAULT
  stepsize       :    0.08000000                  energy_gap     :    0.08000000
  eps_taylor     :   0.10000E-15                  max_taylor     :             4
  ----------------------------------- OT ---------------------------------------

  Step     Update method      Time    Convergence         Total energy    Change
  ------------------------------------------------------------------------------
     1 OT DIIS     0.80E-01    4.6     0.00157487     -1636.3151068334 -1.64E+03
     2 OT DIIS     0.80E-01    3.6     0.00084299     -1636.4842924602 -1.69E-01
     3 OT DIIS     0.80E-01    3.6     0.00053563     -1636.5423856357 -5.81E-02
     4 OT DIIS     0.80E-01    3.4     0.00047477     -1636.5620505247 -1.97E-02
 DBCSR| CPU Multiplication driver                                           BLAS
 DBCSR| Multrec recursion limit                                              512
 DBCSR| Multiplication stack size                                           1000
 DBCSR| Maximum elements for images                                    UNLIMITED
 DBCSR| Multiplicative factor virtual images                                   1
 DBCSR| Use multiplication densification                                       T
 DBCSR| Multiplication size stacks                                             3
 DBCSR| Use memory pool for CPU allocation                                     F
 DBCSR| Number of 3D layers                                               SINGLE
 DBCSR| Use MPI memory allocation                                              F
 DBCSR| Use RMA algorithm                                                      F
 DBCSR| Use Communication thread                                               T
 DBCSR| Communication thread load                                             83
 DBCSR| MPI: My node id                                                        0
 DBCSR| MPI: Number of nodes                                                   6
 DBCSR| OMP: Current number of threads                                         2
 DBCSR| OMP: Max number of threads                                             2
 DBCSR| Split modifier for TAS multiplication algorithm                  1.0E+00


  **** **** ******  **  PROGRAM STARTED AT               2026-06-03 18:54:48.217
 ***** ** ***  *** **   PROGRAM STARTED ON                       WIN-J3K434GUOOG
 **    ****   ******    PROGRAM STARTED BY                                   cpl
 ***** **    ** ** **   PROGRAM PROCESS ID                                   428
  **** **  *******  **  PROGRAM STARTED IN /mnt/d/CPL_CAL/cp2k_a3eucl6_workflow/
                                           runs/QUVXEO_2401649_R_geo_preopt

 CP2K| version string:                                          CP2K version 9.1
 CP2K| source code revision number:                                  git:d8d7100
 CP2K| cp2kflags: omp libint fftw3 libxc elpa parallel mpi3 scalapack spglib    
 CP2K| is freely available from                            https://www.cp2k.org/
 CP2K| Program compiled at                          Sun Jan  9 17:14:22 UTC 2022
 CP2K| Program compiled on                                       lcy02-amd64-025
 CP2K| Program compiled for                                Linux-x86_64-gfortran
 CP2K| Data directory path                                       /usr/share/cp2k
 CP2K| Input file name                                               cellopt.inp

 GLOBAL| Force Environment number                                              1
 GLOBAL| Basis set file name                                       BASIS_A3EUCL6
 GLOBAL| Potential file name                                   POTENTIAL_A3EUCL6
 GLOBAL| MM Potential file name                                     MM_POTENTIAL
 GLOBAL| Coordinate file name                                      __STD_INPUT__
 GLOBAL| Method name                                                        CP2K
 GLOBAL| Project name                                               QUVXEO_R_GEO
 GLOBAL| Run type                                                        GEO_OPT
 GLOBAL| FFT library                                                       FFTW3
 GLOBAL| Diagonalization library                                            ELPA
 GLOBAL| Minimum number of eigenvectors for ELPA usage                        16
 GLOBAL| Orthonormality check for eigenvectors                          DISABLED
 GLOBAL| Matrix multiplication library                                 ScaLAPACK
 GLOBAL| All-to-all communication in single precision                          F
 GLOBAL| FFTs using library dependent lengths                                  F
 GLOBAL| Grid backend                                                       AUTO
 GLOBAL| Global print level                                                  LOW
 GLOBAL| MPI I/O enabled                                                       T
 GLOBAL| Total number of message passing processes                             6
 GLOBAL| Number of threads for this process                                    2
 GLOBAL| This output is from process                                           0
 GLOBAL| Stack size for threads created by OpenMP (OMP_STACKSIZE)        default
 GLOBAL| CPU model name                             Intel(R) Core(TM) i5-14600KF

 MEMORY| system memory details [Kb]
 MEMORY|                        rank 0           min           max       average
 MEMORY| MemTotal             16278588      16278588      16278588      16278588
 MEMORY| MemFree              14780292      14780292      14782812      14782392
 MEMORY| Buffers                 45096         45096         45096         45096
 MEMORY| Cached                 446848        446848        446848        446848
 MEMORY| Slab                   112024        112024        112024        112024
 MEMORY| SReclaimable            28192         28192         28192         28192
 MEMORY| MemLikelyFree        15300428      15300428      15302948      15302528


 GENERATE|  Preliminary Number of Bonds generated:                             0
 GENERATE|  Achieved consistency in connectivity generation.

 *******************************************************************************
 *******************************************************************************
 **                                                                           **
 **     #####                         ##              ##                      **
 **    ##   ##            ##          ##              ##                      **
 **   ##     ##                       ##            ######                    **
 **   ##     ##  ##   ##  ##   #####  ##  ##   ####   ##    #####    #####    **
 **   ##     ##  ##   ##  ##  ##      ## ##   ##      ##   ##   ##  ##   ##   **
 **   ##  ## ##  ##   ##  ##  ##      ####     ###    ##   ######   ######    **
 **    ##  ###   ##   ##  ##  ##      ## ##      ##   ##   ##       ##        **
 **     #######   #####   ##   #####  ##  ##  ####    ##    #####   ##        **
 **           ##                                                    ##        **
 **                                                                           **
 **                                                ... make the atoms dance   **
 **                                                                           **
 **            Copyright (C) by CP2K developers group (2000-2021)             **
 **                      J. Chem. Phys. 152, 194103 (2020)                    **
 **                                                                           **
 *******************************************************************************


 TOTAL NUMBERS AND MAXIMUM NUMBERS

  Total number of            - Atomic kinds:                                   6
                             - Atoms:                                        280
                             - Shell sets:                                   296
                             - Shells:                                      1160
                             - Primitive Cartesian functions:               1388
                             - Cartesian basis functions:                   2920
                             - Spherical basis functions:                   2720

  Maximum angular momentum of- Orbital basis functions:                        3
                             - Local part of the GTH pseudopotential:          2
                             - Non-local part of the GTH pseudopotential:      4


 SCF PARAMETERS         Density guess:                                    ATOMIC
                        --------------------------------------------------------
                        max_scf:                                             200
                        max_scf_history:                                       0
                        max_diis:                                              4
                        --------------------------------------------------------
                        eps_scf:                                        1.00E-05
                        eps_scf_history:                                0.00E+00
                        eps_diis:                                       1.00E-01
                        eps_eigval:                                     1.00E-05
                        --------------------------------------------------------
                        level_shift [a.u.]:                                 0.00
                        --------------------------------------------------------
                        Outer loop SCF in use 
                        No variables optimised in outer loop
                        eps_scf                                         1.00E-05
                        max_scf                                                8
                        No outer loop optimization
                        step_size                                       5.00E-01

 BFGS| Use rational function optimization for step estimation:                NO
 BFGS| Use model Hessian for initial guess:                                  YES
 BFGS| Restart Hessian:                                                       NO
 BFGS| Trust radius:                                                       0.472

 *******************************************************************************
 ***                     STARTING GEOMETRY OPTIMIZATION                      ***
 ***                                   BFGS                                  ***
 *******************************************************************************

 Number of electrons:                                                        896
 Number of occupied orbitals:                                                448
 Number of molecular orbitals:                                               448

 Number of orbital functions:                                               2720
 Number of independent orbital functions:                                   2720

 Extrapolation method: initial_guess


 SCF WAVEFUNCTION OPTIMIZATION

  ----------------------------------- OT ---------------------------------------
  Minimizer      : DIIS                : direct inversion
                                         in the iterative subspace
                                         using   7 DIIS vectors
                                         safer DIIS on
  Preconditioner : FULL_SINGLE_INVERSE : inversion of 
                                         H + eS - 2*(Sc)(c^T*H*c+const)(Sc)^T
  Precond_solver : DEFAULT
  stepsize       :    0.08000000                  energy_gap     :    0.08000000
  eps_taylor     :   0.10000E-15                  max_taylor     :             4
  ----------------------------------- OT ---------------------------------------

  Step     Update method      Time    Convergence         Total energy    Change
  ------------------------------------------------------------------------------
     1 OT DIIS     0.80E-01    5.5     0.01817521     -1536.1378143137 -1.54E+03
     2 OT DIIS     0.80E-01    3.0     0.01293132     -1563.5925912470 -2.75E+01
     3 OT DIIS     0.80E-01    3.0     0.00788441     -1586.8231757630 -2.32E+01
     4 OT DIIS     0.80E-01    3.1     0.00690888     -1590.7801520588 -3.96E+00
     5 OT DIIS     0.80E-01    3.1     0.00516556     -1605.7445177077 -1.50E+01
     6 OT DIIS     0.80E-01    3.0     0.00389835     -1612.3374167934 -6.59E+00
     7 OT DIIS     0.80E-01    3.0     0.00320912     -1616.9277076468 -4.59E+00
     8 OT DIIS     0.80E-01    2.9     0.00237346     -1622.4919062258 -5.56E+00
     9 OT DIIS     0.80E-01    3.0     0.00191934     -1625.2466052049 -2.75E+00
    10 OT DIIS     0.80E-01    3.0     0.00154305     -1627.2810564444 -2.03E+00
    11 OT DIIS     0.80E-01    3.0     0.00148485     -1627.7781589496 -4.97E-01
    12 OT DIIS     0.80E-01    3.0     0.00126139     -1628.9668166094 -1.19E+00
    13 OT DIIS     0.80E-01    3.0     0.00105574     -1630.1670564934 -1.20E+00
    14 OT DIIS     0.80E-01    3.0     0.00093095     -1630.6174166198 -4.50E-01
    15 OT DIIS     0.80E-01    2.9     0.00075015     -1631.4227879539 -8.05E-01
    16 OT DIIS     0.80E-01    3.0     0.00067451     -1631.8369810814 -4.14E-01
    17 OT DIIS     0.80E-01    3.0     0.00064510     -1632.2126331790 -3.76E-01
    18 OT DIIS     0.80E-01    2.9     0.00058209     -1632.3638628565 -1.51E-01
    19 OT DIIS     0.80E-01    3.0     0.00054601     -1632.4702203545 -1.06E-01
    20 OT DIIS     0.80E-01    3.4     0.00046108     -1632.8005504126 -3.30E-01
    21 OT DIIS     0.80E-01    3.2     0.00040466     -1633.0553650004 -2.55E-01
    22 OT DIIS     0.80E-01    3.1     0.00038476     -1633.1613158101 -1.06E-01
    23 OT DIIS     0.80E-01    3.2     0.00034517     -1633.3487790849 -1.87E-01
    24 OT DIIS     0.80E-01    3.1     0.00034170     -1633.4040908286 -5.53E-02
    25 OT DIIS     0.80E-01    3.1     0.00032979     -1633.4327708078 -2.87E-02
    26 OT DIIS     0.80E-01    3.1     0.00031536     -1633.5029279156 -7.02E-02
    27 OT DIIS     0.80E-01    3.1     0.00028884     -1633.6346301023 -1.32E-01
    28 OT DIIS     0.80E-01    3.1     0.00027422     -1633.7214248598 -8.68E-02
    29 OT DIIS     0.80E-01    3.1     0.00026680     -1633.7654087844 -4.40E-02
    30 OT DIIS     0.80E-01    3.1     0.00025306     -1633.8879002452 -1.22E-01
    31 OT DIIS     0.80E-01    3.2     0.00024681     -1633.9029168275 -1.50E-02
    32 OT DIIS     0.80E-01    3.2     0.00024350     -1633.9237149580 -2.08E-02
    33 OT DIIS     0.80E-01    3.2     0.00022635     -1634.0280309917 -1.04E-01
    34 OT DIIS     0.80E-01    3.1     0.00021464     -1634.0973708658 -6.93E-02
    35 OT DIIS     0.80E-01    3.1     0.00020448     -1634.1472483610 -4.99E-02
    36 OT SD       0.80E-01    3.2     0.00020171     -1634.1919116786 -4.47E-02
    37 OT DIIS     0.80E-01    3.4     0.00019944     -1634.1958541529 -3.94E-03
    38 OT DIIS     0.80E-01    3.2     0.00018468     -1634.2723492847 -7.65E-02
    39 OT DIIS     0.80E-01    3.1     0.00017469     -1634.3156245193 -4.33E-02
    40 OT DIIS     0.80E-01    3.2     0.00016310     -1634.3629442062 -4.73E-02
    41 OT DIIS     0.80E-01    3.3     0.00016036     -1634.3765292331 -1.36E-02
    42 OT DIIS     0.80E-01    3.4     0.00014588     -1634.4463938895 -6.99E-02
    43 OT DIIS     0.80E-01    3.1     0.00014275     -1634.4583763890 -1.20E-02
    44 OT DIIS     0.80E-01    3.2     0.00013364     -1634.4998793075 -4.15E-02
    45 OT DIIS     0.80E-01    3.3     0.00013240     -1634.5090796356 -9.20E-03
    46 OT DIIS     0.80E-01    3.3     0.00012920     -1634.5199220121 -1.08E-02
    47 OT DIIS     0.80E-01    3.2     0.00012397     -1634.5411530913 -2.12E-02
    48 OT DIIS     0.80E-01    3.2     0.00011985     -1634.5587864855 -1.76E-02
    49 OT DIIS     0.80E-01    3.1     0.00011672     -1634.5734013775 -1.46E-02
    50 OT SD       0.80E-01    3.2     0.00011121     -1634.6047682830 -3.14E-02
    51 OT DIIS     0.80E-01    3.0     0.00011038     -1634.6059691418 -1.20E-03
    52 OT DIIS     0.80E-01    3.0     0.00010721     -1634.6267046631 -2.07E-02
    53 OT DIIS     0.80E-01    3.0     0.00010538     -1634.6322103342 -5.51E-03
    54 OT SD       0.80E-01    3.1     0.00010647     -1634.6478167989 -1.56E-02
    55 OT DIIS     0.80E-01    3.0     0.00010574     -1634.6489176526 -1.10E-03
    56 OT DIIS     0.80E-01    3.0     0.00010199     -1634.6605076793 -1.16E-02
    57 OT DIIS     0.80E-01    3.0     0.00010167     -1634.6645549009 -4.05E-03
    58 OT DIIS     0.80E-01    2.9     0.00010129     -1634.6688010763 -4.25E-03
    59 OT DIIS     0.80E-01    3.0     0.00009833     -1634.6996073041 -3.08E-02
    60 OT DIIS     0.80E-01    3.2     0.00009769     -1634.7045071656 -4.90E-03
    61 OT SD       0.80E-01    3.1     0.00009695     -1634.7317375938 -2.72E-02
    62 OT DIIS     0.80E-01    3.2     0.00009655     -1634.7326517996 -9.14E-04
    63 OT SD       0.80E-01    3.2     0.00009549     -1634.7389313371 -6.28E-03
    64 OT DIIS     0.80E-01    3.0     0.00009529     -1634.7398191982 -8.88E-04
    65 OT DIIS     0.80E-01    3.0     0.00009459     -1634.7590313529 -1.92E-02
    66 OT DIIS     0.80E-01    3.0     0.00009251     -1634.7629541390 -3.92E-03
    67 OT DIIS     0.80E-01    3.0     0.00009173     -1634.7679942972 -5.04E-03
    68 OT DIIS     0.80E-01    3.0     0.00008860     -1634.7880680793 -2.01E-02
    69 OT DIIS     0.80E-01    3.0     0.00008823     -1634.7921607351 -4.09E-03
    70 OT DIIS     0.80E-01    3.2     0.00008770     -1634.7944244181 -2.26E-03
    71 OT SD       0.80E-01    3.2     0.00008196     -1634.8233057957 -2.89E-02
    72 OT DIIS     0.80E-01    3.1     0.00008119     -1634.8239573217 -6.52E-04
    73 OT DIIS     0.80E-01    3.1     0.00007937     -1634.8438946960 -1.99E-02
    74 OT SD       0.80E-01    3.2     0.00006865     -1634.8600772850 -1.62E-02
    75 OT DIIS     0.80E-01    3.2     0.00006799     -1634.8605343192 -4.57E-04
    76 OT SD       0.80E-01    3.1     0.00006730     -1634.8705215095 -9.99E-03
    77 OT DIIS     0.80E-01    3.1     0.00006611     -1634.8709589172 -4.37E-04
    78 OT SD       0.80E-01    3.1     0.00005309     -1634.8943201973 -2.34E-02
    79 OT DIIS     0.80E-01    3.1     0.00005205     -1634.8945921143 -2.72E-04
    80 OT DIIS     0.80E-01    3.2     0.00004588     -1634.9016192762 -7.03E-03
    81 OT DIIS     0.80E-01    3.2     0.00004464     -1634.9033686751 -1.75E-03
    82 OT DIIS     0.80E-01    3.1     0.00004142     -1634.9076489478 -4.28E-03
    83 OT DIIS     0.80E-01    3.1     0.00004010     -1634.9085690130 -9.20E-04
    84 OT DIIS     0.80E-01    3.1     0.00003937     -1634.9093361388 -7.67E-04
    85 OT DIIS     0.80E-01    3.2     0.00003597     -1634.9137142494 -4.38E-03
    86 OT DIIS     0.80E-01    3.1     0.00003490     -1634.9145538484 -8.40E-04
    87 OT DIIS     0.80E-01    3.1     0.00003347     -1634.9157907930 -1.24E-03
    88 OT DIIS     0.80E-01    3.1     0.00003245     -1634.9166145849 -8.24E-04
    89 OT DIIS     0.80E-01    3.2     0.00003009     -1634.9208283914 -4.21E-03
    90 OT DIIS     0.80E-01    3.2     0.00002881     -1634.9218631878 -1.03E-03
    91 OT DIIS     0.80E-01    3.2     0.00002624     -1634.9241047356 -2.24E-03
    92 OT DIIS     0.80E-01    3.2     0.00002666     -1634.9240486820  5.61E-05
    93 OT DIIS     0.80E-01    3.0     0.00002490     -1634.9257762480 -1.73E-03
    94 OT DIIS     0.80E-01    3.1     0.00002458     -1634.9260667425 -2.90E-04
    95 OT DIIS     0.80E-01    3.2     0.00002327     -1634.9278926279 -1.83E-03
    96 OT SD       0.80E-01    3.2     0.00002301     -1634.9281953016 -3.03E-04
    97 OT DIIS     0.80E-01    3.1     0.00002287     -1634.9282467662 -5.15E-05
    98 OT DIIS     0.80E-01    3.2     0.00002095     -1634.9311668501 -2.92E-03
    99 OT DIIS     0.80E-01    3.2     0.00002077     -1634.9314062598 -2.39E-04
   100 OT DIIS     0.80E-01    3.2     0.00002032     -1634.9322291469 -8.23E-04
   101 OT DIIS     0.80E-01    3.1     0.00001995     -1634.9325660128 -3.37E-04
   102 OT DIIS     0.80E-01    3.1     0.00001962     -1634.9329363020 -3.70E-04
   103 OT DIIS     0.80E-01    3.2     0.00001941     -1634.9332600830 -3.24E-04
   104 OT DIIS     0.80E-01    3.2     0.00001878     -1634.9349380042 -1.68E-03
   105 OT DIIS     0.80E-01    3.0     0.00001848     -1634.9355517070 -6.14E-04
   106 OT DIIS     0.80E-01    3.0     0.00001738     -1634.9372921260 -1.74E-03
   107 OT DIIS     0.80E-01    3.0     0.00001712     -1634.9375445856 -2.52E-04
   108 OT DIIS     0.80E-01    3.0     0.00001690     -1634.9378071449 -2.63E-04
   109 OT DIIS     0.80E-01    3.1     0.00001598     -1634.9397814915 -1.97E-03
   110 OT DIIS     0.80E-01    3.0     0.00001535     -1634.9409147538 -1.13E-03
   111 OT DIIS     0.80E-01    3.0     0.00001512     -1634.9415938938 -6.79E-04
   112 OT DIIS     0.80E-01    3.0     0.00001489     -1634.9422210336 -6.27E-04
   113 OT DIIS     0.80E-01    3.0     0.00001469     -1634.9425041272 -2.83E-04
   114 OT DIIS     0.80E-01    3.0     0.00001453     -1634.9432375624 -7.33E-04
   115 OT DIIS     0.80E-01    3.0     0.00001418     -1634.9438884602 -6.51E-04
   116 OT DIIS     0.80E-01    3.0     0.00001385     -1634.9445810746 -6.93E-04
   117 OT DIIS     0.80E-01    3.0     0.00001361     -1634.9451447087 -5.64E-04
   118 OT DIIS     0.80E-01    3.0     0.00001345     -1634.9454925978 -3.48E-04
   119 OT DIIS     0.80E-01    3.0     0.00001330     -1634.9456396701 -1.47E-04
   120 OT DIIS     0.80E-01    3.0     0.00001306     -1634.9459768620 -3.37E-04
   121 OT DIIS     0.80E-01    3.0     0.00001299     -1634.9462463759 -2.70E-04
   122 OT DIIS     0.80E-01    3.0     0.00001285     -1634.9469614434 -7.15E-04
   123 OT DIIS     0.80E-01    3.0     0.00001271     -1634.9475513643 -5.90E-04
   124 OT DIIS     0.80E-01    3.0     0.00001264     -1634.9478732261 -3.22E-04
   125 OT DIIS     0.80E-01    3.0     0.00001259     -1634.9480257767 -1.53E-04
   126 OT DIIS     0.80E-01    3.0     0.00001240     -1634.9485463040 -5.21E-04
   127 OT DIIS     0.80E-01    3.0     0.00001207     -1634.9489903936 -4.44E-04
   128 OT DIIS     0.80E-01    3.0     0.00001198     -1634.9492248224 -2.34E-04
   129 OT SD       0.80E-01    3.1     0.00001168     -1634.9497748729 -5.50E-04
   130 OT SD       0.80E-01    3.0     0.00001165     -1634.9497881582 -1.33E-05
   131 OT DIIS     0.80E-01    3.0     0.00001162     -1634.9498013605 -1.32E-05
   132 OT SD       0.80E-01    3.0     0.00001136     -1634.9507425425 -9.41E-04
   133 OT DIIS     0.80E-01    3.0     0.00001131     -1634.9507550889 -1.25E-05
   134 OT DIIS     0.80E-01    3.0     0.00001110     -1634.9511536822 -3.99E-04
   135 OT DIIS     0.80E-01    3.0     0.00001107     -1634.9512792821 -1.26E-04
   136 OT DIIS     0.80E-01    3.0     0.00001092     -1634.9518312263 -5.52E-04
   137 OT DIIS     0.80E-01    3.0     0.00001090     -1634.9519179907 -8.68E-05
   138 OT DIIS     0.80E-01    3.0     0.00001069     -1634.9528058477 -8.88E-04
   139 OT DIIS     0.80E-01    3.0     0.00001058     -1634.9530249551 -2.19E-04
   140 OT DIIS     0.80E-01    3.0     0.00001046     -1634.9536456945 -6.21E-04
   141 OT DIIS     0.80E-01    3.0     0.00001043     -1634.9536537385 -8.04E-06
   142 OT DIIS     0.80E-01    3.0     0.00001032     -1634.9541307580 -4.77E-04
   143 OT DIIS     0.80E-01    3.0     0.00001022     -1634.9547192437 -5.88E-04
   144 OT DIIS     0.80E-01    3.0     0.00001015     -1634.9550949303 -3.76E-04
   145 OT DIIS     0.80E-01    3.0     0.00000996     -1634.9562068471 -1.11E-03

  *** SCF run converged in   145 steps ***


  Electronic density on regular grids:       -895.9999969043        0.0000030957
  Core density on regular grids:              895.9999999260       -0.0000000740
  Total charge density on r-space grids:        0.0000030217
  Total charge density g-space grids:           0.0000030217

  Overlap energy of the core charge distribution:               0.00085868255933
  Self energy of the core charge distribution:              -3531.67332257831958
  Core Hamiltonian energy:                                   1040.40968755792369
  Hartree energy:                                            1253.38624015134110
  Exchange-correlation energy:                               -396.25079140081397
  Dispersion energy:                                           -0.82887925980407

  Total energy:                                             -1634.95620684711389

  outer SCF iter =    1 RMS gradient =   0.10E-04 energy =      -1634.9562068471
  outer SCF loop converged in   1 iterations or  145 steps


 ENERGY| Total FORCE_EVAL ( QS ) energy [a.u.]:            -1634.956207035150783

 --------  Informations at step =     0 ------------
  Optimization Method        =                 BFGS
  Total Energy               =     -1634.9562070352
  Used time                  =              458.045
 ---------------------------------------------------

 --------------------------
 OPTIMIZATION STEP:      1
 --------------------------

  Step is scaled; Scaling factor =  0.94404

 Number of electrons:                                                        896
 Number of occupied orbitals:                                                448
 Number of molecular orbitals:                                               448

 Number of orbital functions:                                               2720
 Number of independent orbital functions:                                   2720

 Extrapolation method: ASPC


 SCF WAVEFUNCTION OPTIMIZATION

  ----------------------------------- OT ---------------------------------------
  Minimizer      : DIIS                : direct inversion
                                         in the iterative subspace
                                         using   7 DIIS vectors
                                         safer DIIS on
  Preconditioner : FULL_SINGLE_INVERSE : inversion of 
                                         H + eS - 2*(Sc)(c^T*H*c+const)(Sc)^T
  Precond_solver : DEFAULT
  stepsize       :    0.08000000                  energy_gap     :    0.08000000
  eps_taylor     :   0.10000E-15                  max_taylor     :             4
  ----------------------------------- OT ---------------------------------------

  Step     Update method      Time    Convergence         Total energy    Change
  ------------------------------------------------------------------------------
     1 OT DIIS     0.80E-01    4.1     0.00157164     -1636.3147412558 -1.64E+03
     2 OT DIIS     0.80E-01    2.9     0.00084123     -1636.4832440725 -1.69E-01
     3 OT DIIS     0.80E-01    2.9     0.00053395     -1636.5411309426 -5.79E-02
     4 OT DIIS     0.80E-01    3.0     0.00047296     -1636.5607402435 -1.96E-02
     5 OT DIIS     0.80E-01    3.0     0.00030689     -1636.5657757936 -5.04E-03
     6 OT DIIS     0.80E-01    2.9     0.00013016     -1636.5683678731 -2.59E-03
     7 OT DIIS     0.80E-01    2.9     0.00011855     -1636.5693497354 -9.82E-04
     8 OT DIIS     0.80E-01    3.0     0.00007120     -1636.5698645597 -5.15E-04
     9 OT DIIS     0.80E-01    3.1     0.00006511     -1636.5702944420 -4.30E-04
    10 OT DIIS     0.80E-01    3.0     0.00005791     -1636.5705226454 -2.28E-04
    11 OT DIIS     0.80E-01    3.1     0.00005648     -1636.5708916945 -3.69E-04
    12 OT DIIS     0.80E-01    3.4     0.00005441     -1636.5712538882 -3.62E-04
    13 OT DIIS     0.80E-01    3.1     0.00005550     -1636.5718566512 -6.03E-04
    14 OT DIIS     0.80E-01    3.2     0.00005214     -1636.5724242666 -5.68E-04
    15 OT DIIS     0.80E-01    3.1     0.00005105     -1636.5731674323 -7.43E-04
    16 OT DIIS     0.80E-01    3.1     0.00004904     -1636.5738732891 -7.06E-04
    17 OT DIIS     0.80E-01    3.6     0.00004776     -1636.5746087556 -7.35E-04
    18 OT DIIS     0.80E-01    3.4     0.00004702     -1636.5751901245 -5.81E-04
    19 OT DIIS     0.80E-01    3.1     0.00004575     -1636.5757646457 -5.75E-04
    20 OT DIIS     0.80E-01    3.1     0.00004474     -1636.5761532193 -3.89E-04
    21 OT DIIS     0.80E-01    3.4     0.00004434     -1636.5765721904 -4.19E-04
    22 OT DIIS     0.80E-01    3.2     0.00004444     -1636.5769671532 -3.95E-04
    23 OT DIIS     0.80E-01    3.2     0.00004395     -1636.5776262715 -6.59E-04
    24 OT DIIS     0.80E-01    3.3     0.00004340     -1636.5784233468 -7.97E-04
    25 OT DIIS     0.80E-01    3.1     0.00004093     -1636.5792550636 -8.32E-04
    26 OT DIIS     0.80E-01    3.1     0.00003939     -1636.5800628946 -8.08E-04
    27 OT DIIS     0.80E-01    3.1     0.00003752     -1636.5806162199 -5.53E-04
    28 OT DIIS     0.80E-01    3.0     0.00003687     -1636.5810160317 -4.00E-04
    29 OT DIIS     0.80E-01    3.0     0.00003623     -1636.5814125584 -3.97E-04
    30 OT DIIS     0.80E-01    3.0     0.00003621     -1636.5817220395 -3.09E-04
    31 OT DIIS     0.80E-01    3.0     0.00003481     -1636.5820866363 -3.65E-04
    32 OT DIIS     0.80E-01    3.0     0.00003410     -1636.5823710879 -2.84E-04
    33 OT DIIS     0.80E-01    3.0     0.00003297     -1636.5826205395 -2.49E-04
    34 OT DIIS     0.80E-01    3.0     0.00003268     -1636.5828752870 -2.55E-04
    35 OT DIIS     0.80E-01    3.0     0.00003239     -1636.5830992861 -2.24E-04
    36 OT DIIS     0.80E-01    3.0     0.00003237     -1636.5833540478 -2.55E-04
    37 OT DIIS     0.80E-01    3.0     0.00003192     -1636.5835988190 -2.45E-04
    38 OT DIIS     0.80E-01    3.0     0.00003172     -1636.5837986365 -2.00E-04
    39 OT DIIS     0.80E-01    3.0     0.00003131     -1636.5840030137 -2.04E-04
    40 OT DIIS     0.80E-01    3.0     0.00003119     -1636.5841847618 -1.82E-04
    41 OT DIIS     0.80E-01    3.1     0.00003093     -1636.5843594756 -1.75E-04
    42 OT DIIS     0.80E-01    3.0     0.00003082     -1636.5845845640 -2.25E-04
    43 OT DIIS     0.80E-01    3.1     0.00003068     -1636.5847931304 -2.09E-04
    44 OT DIIS     0.80E-01    3.0     0.00003063     -1636.5850517631 -2.59E-04
    45 OT DIIS     0.80E-01    3.0     0.00003045     -1636.5853055504 -2.54E-04
    46 OT DIIS     0.80E-01    3.1     0.00003046     -1636.5855606288 -2.55E-04
    47 OT DIIS     0.80E-01    3.1     0.00003012     -1636.5858236082 -2.63E-04
    48 OT DIIS     0.80E-01    3.3     0.00002986     -1636.5860493747 -2.26E-04
    49 OT DIIS     0.80E-01    3.2     0.00002943     -1636.5862631230 -2.14E-04
    50 OT DIIS     0.80E-01    3.1     0.00002921     -1636.5866261487 -3.63E-04
    51 OT DIIS     0.80E-01    3.0     0.00002924     -1636.5870632677 -4.37E-04
    52 OT DIIS     0.80E-01    3.1     0.00002916     -1636.5876136067 -5.50E-04
    53 OT DIIS     0.80E-01    3.1     0.00002760     -1636.5880459780 -4.32E-04
    54 OT DIIS     0.80E-01    3.1     0.00002679     -1636.5883040162 -2.58E-04
    55 OT DIIS     0.80E-01    3.1     0.00002487     -1636.5884909421 -1.87E-04
    56 OT DIIS     0.80E-01    3.1     0.00002422     -1636.5886366796 -1.46E-04
    57 OT DIIS     0.80E-01    3.0     0.00002302     -1636.5887921609 -1.55E-04
    58 OT DIIS     0.80E-01    3.1     0.00002225     -1636.5889634235 -1.71E-04
    59 OT DIIS     0.80E-01    3.1     0.00002140     -1636.5890771628 -1.14E-04
    60 OT DIIS     0.80E-01    3.1     0.00002099     -1636.5891412630 -6.41E-05
    61 OT DIIS     0.80E-01    3.1     0.00002079     -1636.5892129979 -7.17E-05
    62 OT DIIS     0.80E-01    3.1     0.00002104     -1636.5893648386 -1.52E-04
    63 OT DIIS     0.80E-01    3.1     0.00002081     -1636.5894601156 -9.53E-05
    64 OT DIIS     0.80E-01    3.1     0.00002076     -1636.5894957886 -3.57E-05
    65 OT SD       0.80E-01    3.1     0.00002101     -1636.5895298265 -3.40E-05
    66 OT SD       0.80E-01    3.4     0.00002188     -1636.5895721709 -4.23E-05
    67 OT SD       0.80E-01    3.6     0.00002504     -1636.5896143842 -4.22E-05
    68 OT SD       0.80E-01    3.2     0.00003927     -1636.5896477574 -3.34E-05
    69 OT SD       0.80E-01    3.2     0.00009036     -1636.5896079318  3.98E-05
    70 OT DIIS     0.80E-01    3.1     0.00024221     -1636.5890033264  6.05E-04
    71 OT DIIS     0.80E-01    3.1     0.00002161     -1636.5892125786 -2.09E-04
    72 OT SD       0.80E-01    3.1     0.00002073     -1636.5892643276 -5.17E-05
    73 OT SD       0.80E-01    3.1     0.00002277     -1636.5893023303 -3.80E-05
    74 OT SD       0.80E-01    3.1     0.00003590     -1636.5893300694 -2.77E-05
    75 OT DIIS     0.80E-01    3.1     0.00008499     -1636.5892906513  3.94E-05
    76 OT DIIS     0.80E-01    3.1     0.00002055     -1636.5893101995 -1.95E-05
    77 OT DIIS     0.80E-01    3.1     0.00001955     -1636.5894697708 -1.60E-04
    78 OT DIIS     0.80E-01    3.1     0.00001956     -1636.5895041947 -3.44E-05
    79 OT DIIS     0.80E-01    3.1     0.00001935     -1636.5895101334 -5.94E-06
    80 OT DIIS     0.80E-01    3.1     0.00001926     -1636.5895281001 -1.80E-05
    81 OT DIIS     0.80E-01    3.1     0.00001963     -1636.5895743339 -4.62E-05
    82 OT SD       0.80E-01    3.2     0.00001920     -1636.5896534648 -7.91E-05
    83 OT DIIS     0.80E-01    3.1     0.00002623     -1636.5896805959 -2.71E-05
    84 OT DIIS     0.80E-01    3.1     0.00001789     -1636.5896955103 -1.49E-05
    85 OT SD       0.80E-01    3.1     0.00001935     -1636.5897418153 -4.63E-05
    86 OT SD       0.80E-01    3.1     0.00002453     -1636.5897731110 -3.13E-05
    87 OT SD       0.80E-01    3.1     0.00004806     -1636.5897872264 -1.41E-05
    88 OT SD       0.80E-01    3.2     0.00012791     -1636.5896477674  1.39E-04
    89 OT DIIS     0.80E-01    3.1     0.00036580     -1636.5882178299  1.43E-03
    90 OT SD       0.80E-01    3.1     0.00002196     -1636.5893342173 -1.12E-03
    91 OT DIIS     0.80E-01    3.1     0.00002721     -1636.5893682785 -3.41E-05
    92 OT DIIS     0.80E-01    3.1     0.00001754     -1636.5895967882 -2.29E-04
    93 OT DIIS     0.80E-01    3.1     0.00001860     -1636.5896959925 -9.92E-05
    94 OT DIIS     0.80E-01    3.2     0.00002452     -1636.5898964347 -2.00E-04
    95 OT SD       0.80E-01    3.1     0.00002463     -1636.5899397332 -4.33E-05
    96 OT SD       0.80E-01    3.1     0.00003149     -1636.5899870760 -4.73E-05
    97 OT SD       0.80E-01    3.1     0.00006342     -1636.5899999062 -1.28E-05
    98 OT SD       0.80E-01    3.1     0.00016858     -1636.5897401117  2.60E-04
    99 OT DIIS     0.80E-01    3.1     0.00047667     -1636.5872753900  2.46E-03
   100 OT DIIS     0.80E-01    3.1     0.00002336     -1636.5895298039 -2.25E-03
   101 OT DIIS     0.80E-01    3.1     0.00002576     -1636.5897104239 -1.81E-04
   102 OT SD       0.80E-01    3.1     0.00002534     -1636.5897451823 -3.48E-05
   103 OT SD       0.80E-01    3.1     0.00004624     -1636.5897589280 -1.37E-05
   104 OT DIIS     0.80E-01    3.0     0.00010863     -1636.5896629004  9.60E-05
   105 OT SD       0.80E-01    3.2     0.00002041     -1636.5895981979  6.47E-05
   106 OT SD       0.80E-01    3.2     0.00003608     -1636.5896114482 -1.33E-05
   107 OT SD       0.80E-01    3.1     0.00008685     -1636.5895539864  5.75E-05
   108 OT DIIS     0.80E-01    3.1     0.00023083     -1636.5889815818  5.72E-04
   109 OT DIIS     0.80E-01    3.1     0.00002057     -1636.5893324377 -3.51E-04
   110 OT DIIS     0.80E-01    3.1     0.00002076     -1636.5894114565 -7.90E-05
   111 OT SD       0.80E-01    3.1     0.00001959     -1636.5897642955 -3.53E-04
   112 OT SD       0.80E-01    3.0     0.00002118     -1636.5897987973 -3.45E-05
   113 OT SD       0.80E-01    3.1     0.00002895     -1636.5898300276 -3.12E-05
   114 OT DIIS     0.80E-01    3.2     0.00006086     -1636.5898311273 -1.10E-06
   115 OT SD       0.80E-01    3.1     0.00002334     -1636.5901396406 -3.09E-04
   116 OT SD       0.80E-01    3.1     0.00002834     -1636.5901803097 -4.07E-05
   117 OT SD       0.80E-01    3.1     0.00005450     -1636.5901910606 -1.08E-05
   118 OT DIIS     0.80E-01    3.0     0.00013788     -1636.5900181654  1.73E-04
   119 OT SD       0.80E-01    3.0     0.00002092     -1636.5898819633  1.36E-04
   120 OT DIIS     0.80E-01    3.1     0.00002359     -1636.5899220925 -4.01E-05
   121 OT DIIS     0.80E-01    3.1     0.00001696     -1636.5905479792 -6.26E-04
   122 OT DIIS     0.80E-01    3.1     0.00001963     -1636.5906081902 -6.02E-05
   123 OT DIIS     0.80E-01    3.0     0.00001577     -1636.5906625037 -5.43E-05
   124 OT DIIS     0.80E-01    3.0     0.00001582     -1636.5907804885 -1.18E-04
   125 OT DIIS     0.80E-01    3.1     0.00001476     -1636.5909284424 -1.48E-04
   126 OT DIIS     0.80E-01    3.0     0.00001366     -1636.5910828844 -1.54E-04
   127 OT DIIS     0.80E-01    3.1     0.00001345     -1636.5911458677 -6.30E-05
   128 OT DIIS     0.80E-01    3.0     0.00001330     -1636.5912118038 -6.59E-05
   129 OT SD       0.80E-01    3.0     0.00001329     -1636.5912326639 -2.09E-05
   130 OT SD       0.80E-01    3.1     0.00001330     -1636.5912498258 -1.72E-05
   131 OT SD       0.80E-01    3.0     0.00001357     -1636.5912669266 -1.71E-05
   132 OT SD       0.80E-01    3.1     0.00001521     -1636.5912836667 -1.67E-05
   133 OT SD       0.80E-01    3.0     0.00002408     -1636.5912967565 -1.31E-05
   134 OT SD       0.80E-01    3.1     0.00005713     -1636.5912801054  1.67E-05
   135 OT DIIS     0.80E-01    3.0     0.00015548     -1636.5910297805  2.50E-04
   136 OT SD       0.80E-01    3.1     0.00001302     -1636.5910302653 -4.85E-07
   137 OT SD       0.80E-01    3.1     0.00001439     -1636.5910454246 -1.52E-05
   138 OT SD       0.80E-01    3.1     0.00002291     -1636.5910567458 -1.13E-05
   139 OT SD       0.80E-01    3.0     0.00005567     -1636.5910393448  1.74E-05
   140 OT DIIS     0.80E-01    3.1     0.00015544     -1636.5907888328  2.51E-04
   141 OT DIIS     0.80E-01    3.0     0.00001357     -1636.5909103279 -1.21E-04
   142 OT DIIS     0.80E-01    3.0     0.00001222     -1636.5911524948 -2.42E-04
   143 OT DIIS     0.80E-01    3.0     0.00001226     -1636.5911864220 -3.39E-05
   144 OT DIIS     0.80E-01    3.1     0.00001221     -1636.5912276516 -4.12E-05
   145 OT SD       0.80E-01    3.1     0.00001222     -1636.5912508664 -2.32E-05
   146 OT SD       0.80E-01    3.1     0.00001242     -1636.5912653611 -1.45E-05
   147 OT SD       0.80E-01    3.1     0.00001346     -1636.5912797339 -1.44E-05
   148 OT SD       0.80E-01    3.1     0.00001942     -1636.5912921451 -1.24E-05
   149 OT SD       0.80E-01    3.1     0.00004350     -1636.5912878924  4.25E-06
   150 OT SD       0.80E-01    3.1     0.00011743     -1636.5911510473  1.37E-04
   151 OT DIIS     0.80E-01    3.1     0.00032827     -1636.5899654141  1.19E-03
   152 OT DIIS     0.80E-01    3.1     0.00001274     -1636.5909495927 -9.84E-04
   153 OT SD       0.80E-01    3.1     0.00001295     -1636.5909655850 -1.60E-05
   154 OT DIIS     0.80E-01    3.0     0.00001555     -1636.5909790415 -1.35E-05
   155 OT SD       0.80E-01    3.1     0.00001275     -1636.5910297269 -5.07E-05
   156 OT DIIS     0.80E-01    3.1     0.00001412     -1636.5910429361 -1.32E-05
   157 OT DIIS     0.80E-01    3.1     0.00001227     -1636.5910473913 -4.46E-06
   158 OT DIIS     0.80E-01    3.1     0.00001185     -1636.5911091511 -6.18E-05
   159 OT SD       0.80E-01    3.1     0.00001187     -1636.5911594250 -5.03E-05
   160 OT SD       0.80E-01    3.1     0.00001192     -1636.5911731077 -1.37E-05
   161 OT SD       0.80E-01    3.0     0.00001221     -1636.5911866940 -1.36E-05
   162 OT SD       0.80E-01    3.0     0.00001384     -1636.5911998128 -1.31E-05
   163 OT SD       0.80E-01    3.1     0.00002140     -1636.5912099120 -1.01E-05
   164 OT SD       0.80E-01    3.0     0.00004718     -1636.5911998477  1.01E-05
   165 OT DIIS     0.80E-01    3.1     0.00012057     -1636.5910499806  1.50E-04
   166 OT DIIS     0.80E-01    3.1     0.00001225     -1636.5910027636  4.72E-05
   167 OT DIIS     0.80E-01    3.0     0.00001231     -1636.5910567281 -5.40E-05
   168 OT DIIS     0.80E-01    3.1     0.00001189     -1636.5911013422 -4.46E-05
   169 OT DIIS     0.80E-01    3.0     0.00001191     -1636.5911425183 -4.12E-05
   170 OT DIIS     0.80E-01    3.1     0.00001187     -1636.5911496085 -7.09E-06
   171 OT SD       0.80E-01    3.0     0.00001223     -1636.5912569436 -1.07E-04
   172 OT SD       0.80E-01    3.1     0.00001311     -1636.5912708807 -1.39E-05
   173 OT SD       0.80E-01    3.1     0.00001764     -1636.5912834397 -1.26E-05
   174 OT SD       0.80E-01    3.0     0.00003583     -1636.5912852239 -1.78E-06
   175 OT SD       0.80E-01    3.1     0.00009180     -1636.5912068363  7.84E-05
   176 OT DIIS     0.80E-01    3.1     0.00025018     -1636.5905213745  6.85E-04
   177 OT SD       0.80E-01    3.1     0.00001352     -1636.5909993748 -4.78E-04
   178 OT SD       0.80E-01    3.1     0.00001946     -1636.5910106813 -1.13E-05
   179 OT SD       0.80E-01    3.1     0.00004339     -1636.5910047221  5.96E-06
   180 OT DIIS     0.80E-01    3.1     0.00011671     -1636.5908676539  1.37E-04
   181 OT DIIS     0.80E-01    3.1     0.00001279     -1636.5908504787  1.72E-05
   182 OT DIIS     0.80E-01    3.1     0.00001243     -1636.5911196566 -2.69E-04
   183 OT SD       0.80E-01    3.1     0.00001660     -1636.5915792628 -4.60E-04
   184 OT SD       0.80E-01    3.1     0.00001752     -1636.5916039681 -2.47E-05
   185 OT SD       0.80E-01    3.1     0.00002303     -1636.5916261320 -2.22E-05
   186 OT SD       0.80E-01    3.1     0.00004539     -1636.5916314274 -5.30E-06
   187 OT SD       0.80E-01    3.1     0.00011527     -1636.5915110591  1.20E-04
   188 OT DIIS     0.80E-01    3.1     0.00031480     -1636.5904314128  1.08E-03
   189 OT DIIS     0.80E-01    3.0     0.00001725     -1636.5909199252 -4.89E-04
   190 OT SD       0.80E-01    3.0     0.00001625     -1636.5912446084 -3.25E-04
   191 OT SD       0.80E-01    3.1     0.00003003     -1636.5912501967 -5.59E-06
   192 OT SD       0.80E-01    3.1     0.00007297     -1636.5912055329  4.47E-05
   193 OT DIIS     0.80E-01    3.0     0.00019329     -1636.5907993523  4.06E-04
   194 OT DIIS     0.80E-01    3.0     0.00001450     -1636.5911126566 -3.13E-04
   195 OT SD       0.80E-01    3.1     0.00001254     -1636.5912990893 -1.86E-04
   196 OT SD       0.80E-01    3.1     0.00001323     -1636.5913138225 -1.47E-05
   197 OT SD       0.80E-01    3.0     0.00001617     -1636.5913277744 -1.40E-05
   198 OT SD       0.80E-01    3.0     0.00002708     -1636.5913365146 -8.74E-06
   199 OT SD       0.80E-01    3.1     0.00005972     -1636.5913128468  2.37E-05
   200 OT DIIS     0.80E-01    3.0     0.00014844     -1636.5910785691  2.34E-04

  Leaving inner SCF loop after reaching   200 steps.


  Electronic density on regular grids:       -895.9999992623        0.0000007377
  Core density on regular grids:              895.9999999259       -0.0000000741
  Total charge density on r-space grids:        0.0000006636
  Total charge density g-space grids:           0.0000006636

  Overlap energy of the core charge distribution:               0.00010618482019
  Self energy of the core charge distribution:              -3531.67332257831958
  Core Hamiltonian energy:                                   1023.74905051428618
  Hartree energy:                                            1263.68893705383857
  Exchange-correlation energy:                               -391.52510614208973
  Dispersion energy:                                           -0.83074360166427

  Total energy:                                             -1636.59107856912897

  outer SCF iter =    1 RMS gradient =   0.15E-03 energy =      -1636.5910785691

  ----------------------------------- OT ---------------------------------------
  Minimizer      : DIIS                : direct inversion
                                         in the iterative subspace
                                         using   7 DIIS vectors
                                         safer DIIS on
  Preconditioner : FULL_SINGLE_INVERSE : inversion of 
                                         H + eS - 2*(Sc)(c^T*H*c+const)(Sc)^T
  Precond_solver : DEFAULT
  stepsize       :    0.08000000                  energy_gap     :    0.08000000
  eps_taylor     :   0.10000E-15                  max_taylor     :             4
  ----------------------------------- OT ---------------------------------------

  Step     Update method      Time    Convergence         Total energy    Change
  ------------------------------------------------------------------------------
     1 OT DIIS     0.80E-01    8.1     0.00001358     -1636.5909742972  1.04E-04
     2 OT DIIS     0.80E-01    3.1     0.00001601     -1636.5909884112 -1.41E-05
     3 OT DIIS     0.80E-01    3.2     0.00001227     -1636.5909949316 -6.52E-06
     4 OT DIIS     0.80E-01    3.1     0.00001220     -1636.5910123934 -1.75E-05
     5 OT DIIS     0.80E-01    3.1     0.00001199     -1636.5910477375 -3.53E-05
     6 OT DIIS     0.80E-01    3.1     0.00001123     -1636.5910809861 -3.32E-05
     7 OT DIIS     0.80E-01    3.1     0.00001111     -1636.5911053371 -2.44E-05
     8 OT DIIS     0.80E-01    3.1     0.00001106     -1636.5911545734 -4.92E-05
     9 OT DIIS     0.80E-01    3.1     0.00001102     -1636.5911788344 -2.43E-05
    10 OT DIIS     0.80E-01    3.1     0.00001094     -1636.5912678110 -8.90E-05
    11 OT SD       0.80E-01    3.0     0.00001092     -1636.5912682592 -4.48E-07
    12 OT SD       0.80E-01    3.1     0.00001110     -1636.5912797145 -1.15E-05
    13 OT SD       0.80E-01    3.1     0.00001220     -1636.5912909295 -1.12E-05
    14 OT SD       0.80E-01    3.0     0.00001795     -1636.5913002732 -9.34E-06
    15 OT SD       0.80E-01    3.1     0.00003948     -1636.5912957103  4.56E-06
    16 OT DIIS     0.80E-01    3.0     0.00010267     -1636.5911894119  1.06E-04
    17 OT SD       0.80E-01    3.0     0.00001125     -1636.5911492822  4.01E-05
    18 OT SD       0.80E-01    3.1     0.00001378     -1636.5911593535 -1.01E-05
    19 OT SD       0.80E-01    3.0     0.00002498     -1636.5911643599 -5.01E-06
    20 OT SD       0.80E-01    3.0     0.00006089     -1636.5911343311  3.00E-05
    21 OT DIIS     0.80E-01    3.0     0.00016215     -1636.5908490430  2.85E-04
    22 OT DIIS     0.80E-01    3.0     0.00001148     -1636.5910554923 -2.06E-04
    23 OT DIIS     0.80E-01    3.0     0.00001051     -1636.5912321475 -1.77E-04
    24 OT DIIS     0.80E-01    3.1     0.00001052     -1636.5912340699 -1.92E-06
    25 OT SD       0.80E-01    3.1     0.00001056     -1636.5912408502 -6.78E-06
    26 OT DIIS     0.80E-01    3.0     0.00001071     -1636.5912516296 -1.08E-05
    27 OT SD       0.80E-01    3.1     0.00001142     -1636.5913386448 -8.70E-05
    28 OT SD       0.80E-01    3.1     0.00001206     -1636.5913506222 -1.20E-05
    29 OT SD       0.80E-01    3.1     0.00001433     -1636.5913621667 -1.15E-05
    30 OT SD       0.80E-01    3.1     0.00002282     -1636.5913703689 -8.20E-06
    31 OT SD       0.80E-01    3.1     0.00004928     -1636.5913568930  1.35E-05
    32 OT SD       0.80E-01    3.1     0.00012179     -1636.5912010899  1.56E-04
    33 OT DIIS     0.80E-01    3.0     0.00031398     -1636.5900848564  1.12E-03
    34 OT DIIS     0.80E-01    3.1     0.00001216     -1636.5909710111 -8.86E-04
    35 OT DIIS     0.80E-01    3.1     0.00001190     -1636.5910603424 -8.93E-05
    36 OT DIIS     0.80E-01    3.1     0.00001143     -1636.5911417251 -8.14E-05
    37 OT DIIS     0.80E-01    3.1     0.00001347     -1636.5914074753 -2.66E-04
    38 OT DIIS     0.80E-01    3.1     0.00001429     -1636.5914531325 -4.57E-05
    39 OT SD       0.80E-01    3.0     0.00001425     -1636.5914623009 -9.17E-06
    40 OT SD       0.80E-01    3.1     0.00001881     -1636.5914772831 -1.50E-05
    41 OT SD       0.80E-01    3.1     0.00003813     -1636.5914800391 -2.76E-06
    42 OT SD       0.80E-01    3.1     0.00009833     -1636.5913907659  8.93E-05
    43 OT DIIS     0.80E-01    3.1     0.00026857     -1636.5906000751  7.91E-04
    44 OT DIIS     0.80E-01    3.1     0.00001446     -1636.5910758057 -4.76E-04
    45 OT DIIS     0.80E-01    3.1     0.00001489     -1636.5911504246 -7.46E-05
    46 OT SD       0.80E-01    3.1     0.00001399     -1636.5911505275 -1.03E-07
    47 OT SD       0.80E-01    3.1     0.00002317     -1636.5911555247 -5.00E-06
    48 OT SD       0.80E-01    3.1     0.00004880     -1636.5911385507  1.70E-05
    49 OT DIIS     0.80E-01    3.1     0.00011336     -1636.5909984422  1.40E-04
    50 OT DIIS     0.80E-01    3.1     0.00001013     -1636.5912083630 -2.10E-04
    51 OT DIIS     0.80E-01    3.1     0.00001000     -1636.5912286906 -2.03E-05

  *** SCF run converged in    51 steps ***


  Electronic density on regular grids:       -895.9999992978        0.0000007022
  Core density on regular grids:              895.9999999259       -0.0000000741
  Total charge density on r-space grids:        0.0000006281
  Total charge density g-space grids:           0.0000006281

  Overlap energy of the core charge distribution:               0.00010618482019
  Self energy of the core charge distribution:              -3531.67332257831958
  Core Hamiltonian energy:                                   1023.74959481388612
  Hartree energy:                                            1263.68817478850178
  Exchange-correlation energy:                               -391.52503829786872
  Dispersion energy:                                           -0.83074360166427

  Total energy:                                             -1636.59122869064458

  outer SCF iter =    2 RMS gradient =   0.10E-04 energy =      -1636.5912286906
  outer SCF loop converged in   2 iterations or  251 steps


 ENERGY| Total FORCE_EVAL ( QS ) energy [a.u.]:            -1636.591234915013501

 --------  Informations at step =     1 ------------
  Optimization Method        =                 BFGS
  Total Energy               =     -1636.5912349150
  Real energy change         =        -1.6350278799
  Predicted change in energy =        -1.4865746860
  Scaling factor             =         0.9440418286
  Step size                  =         0.4724315332
  Trust radius               =         0.4724315332
  Decrease in energy         =                  YES
  Used time                  =              785.077

  Convergence check :
  Max. step size             =         0.4724315332
  Conv. limit for step size  =         0.0030000000
  Convergence in step size   =                   NO
  RMS step size              =         0.0746689461
  Conv. limit for RMS step   =         0.0015000000
  Convergence in RMS step    =                   NO
  Max. gradient              =         0.0674353309
  Conv. limit for gradients  =         0.0004500000
  Conv. for gradients        =                   NO
  RMS gradient               =         0.0163655228
  Conv. limit for RMS grad.  =         0.0003000000
  Conv. for gradients        =                   NO
 ---------------------------------------------------

 --------------------------
 OPTIMIZATION STEP:      2
 --------------------------

  Step is scaled; Scaling factor =  0.59519

 Number of electrons:                                                        896
 Number of occupied orbitals:                                                448
 Number of molecular orbitals:                                               448

 Number of orbital functions:                                               2720
 Number of independent orbital functions:                                   2720

 Extrapolation method: ASPC


 SCF WAVEFUNCTION OPTIMIZATION

  ----------------------------------- OT ---------------------------------------
  Minimizer      : DIIS                : direct inversion
                                         in the iterative subspace
                                         using   7 DIIS vectors
                                         safer DIIS on
  Preconditioner : FULL_SINGLE_INVERSE : inversion of 
                                         H + eS - 2*(Sc)(c^T*H*c+const)(Sc)^T
  Precond_solver : DEFAULT
  stepsize       :    0.08000000                  energy_gap     :    0.08000000
  eps_taylor     :   0.10000E-15                  max_taylor     :             4
  ----------------------------------- OT ---------------------------------------

  Step     Update method      Time    Convergence         Total energy    Change
  ------------------------------------------------------------------------------
     1 OT DIIS     0.80E-01    5.0     0.00168678     -1636.4116858470 -1.64E+03
     2 OT DIIS     0.80E-01    3.1     0.00107162     -1636.5919210564 -1.80E-01
     3 OT DIIS     0.80E-01    3.2     0.00088481     -1636.6440727987 -5.22E-02
     4 OT DIIS     0.80E-01    3.2     0.00059157     -1636.6835185693 -3.94E-02
     5 OT DIIS     0.80E-01    3.1     0.00054863     -1636.6917464467 -8.23E-03
     6 OT DIIS     0.80E-01    3.1     0.00027310     -1636.6967201280 -4.97E-03
     7 OT DIIS     0.80E-01    3.2     0.00018516     -1636.6986923108 -1.97E-03
     8 OT DIIS     0.80E-01    3.2     0.00013617     -1636.6995915609 -8.99E-04
     9 OT DIIS     0.80E-01    3.2     0.00008537     -1636.7002108947 -6.19E-04
    10 OT DIIS     0.80E-01    3.2     0.00008212     -1636.7006571831 -4.46E-04
    11 OT DIIS     0.80E-01    3.2     0.00006716     -1636.7009943827 -3.37E-04
    12 OT DIIS     0.80E-01    3.2     0.00006353     -1636.7014256978 -4.31E-04
    13 OT DIIS     0.80E-01    3.2     0.00006196     -1636.7018560418 -4.30E-04
    14 OT DIIS     0.80E-01    3.2     0.00005880     -1636.7023879071 -5.32E-04
    15 OT DIIS     0.80E-01    3.2     0.00005809     -1636.7031008006 -7.13E-04
    16 OT DIIS     0.80E-01    3.2     0.00005035     -1636.7037816289 -6.81E-04
    17 OT DIIS     0.80E-01    3.1     0.00004650     -1636.7044613755 -6.80E-04
    18 OT DIIS     0.80E-01    3.1     0.00004294     -1636.7049320684 -4.71E-04
    19 OT DIIS     0.80E-01    3.1     0.00003888     -1636.7052808021 -3.49E-04
    20 OT DIIS     0.80E-01    3.1     0.00003464     -1636.7055748608 -2.94E-04
    21 OT DIIS     0.80E-01    3.1     0.00003317     -1636.7057674678 -1.93E-04
    22 OT DIIS     0.80E-01    3.1     0.00003021     -1636.7059049531 -1.37E-04
    23 OT DIIS     0.80E-01    3.1     0.00002898     -1636.7060310653 -1.26E-04
    24 OT DIIS     0.80E-01    3.1     0.00002762     -1636.7061277202 -9.67E-05
    25 OT DIIS     0.80E-01    3.1     0.00002683     -1636.7062349546 -1.07E-04
    26 OT DIIS     0.80E-01    3.1     0.00002661     -1636.7063308129 -9.59E-05
    27 OT DIIS     0.80E-01    3.1     0.00002626     -1636.7064284481 -9.76E-05
    28 OT DIIS     0.80E-01    3.1     0.00002589     -1636.7065497183 -1.21E-04
    29 OT DIIS     0.80E-01    3.1     0.00002581     -1636.7066636782 -1.14E-04
    30 OT DIIS     0.80E-01    3.1     0.00002548     -1636.7067932956 -1.30E-04
    31 OT DIIS     0.80E-01    3.1     0.00002536     -1636.7069521932 -1.59E-04
    32 OT DIIS     0.80E-01    3.1     0.00002517     -1636.7071261354 -1.74E-04
    33 OT DIIS     0.80E-01    3.1     0.00002489     -1636.7073366135 -2.10E-04
    34 OT DIIS     0.80E-01    3.1     0.00002461     -1636.7075384593 -2.02E-04
    35 OT DIIS     0.80E-01    3.1     0.00002438     -1636.7077185604 -1.80E-04
    36 OT DIIS     0.80E-01    3.1     0.00002387     -1636.7079228071 -2.04E-04
    37 OT DIIS     0.80E-01    3.1     0.00002399     -1636.7081084599 -1.86E-04
    38 OT DIIS     0.80E-01    3.2     0.00002361     -1636.7083081290 -2.00E-04
    39 OT DIIS     0.80E-01    3.1     0.00002349     -1636.7085475978 -2.39E-04
    40 OT DIIS     0.80E-01    3.1     0.00002302     -1636.7087698277 -2.22E-04
    41 OT DIIS     0.80E-01    3.1     0.00002251     -1636.7090003659 -2.31E-04
    42 OT DIIS     0.80E-01    3.1     0.00002194     -1636.7091947543 -1.94E-04
    43 OT DIIS     0.80E-01    3.2     0.00002171     -1636.7093628345 -1.68E-04
    44 OT DIIS     0.80E-01    3.1     0.00002104     -1636.7095403252 -1.77E-04
    45 OT DIIS     0.80E-01    3.2     0.00002096     -1636.7096975030 -1.57E-04
    46 OT DIIS     0.80E-01    3.1     0.00002047     -1636.7098387599 -1.41E-04
    47 OT DIIS     0.80E-01    3.1     0.00002015     -1636.7099930256 -1.54E-04
    48 OT DIIS     0.80E-01    3.1     0.00001989     -1636.7101262566 -1.33E-04
    49 OT DIIS     0.80E-01    3.0     0.00001969     -1636.7102735734 -1.47E-04
    50 OT DIIS     0.80E-01    3.0     0.00001958     -1636.7104129010 -1.39E-04
    51 OT DIIS     0.80E-01    3.1     0.00001958     -1636.7105629667 -1.50E-04
    52 OT DIIS     0.80E-01    3.1     0.00001928     -1636.7107213974 -1.58E-04
    53 OT DIIS     0.80E-01    3.1     0.00001923     -1636.7108823629 -1.61E-04
    54 OT DIIS     0.80E-01    3.1     0.00001899     -1636.7110181318 -1.36E-04
    55 OT DIIS     0.80E-01    3.1     0.00001865     -1636.7111673005 -1.49E-04
    56 OT DIIS     0.80E-01    3.1     0.00001843     -1636.7112954005 -1.28E-04
    57 OT DIIS     0.80E-01    3.1     0.00001818     -1636.7114379702 -1.43E-04
    58 OT DIIS     0.80E-01    3.1     0.00001799     -1636.7115738786 -1.36E-04
    59 OT DIIS     0.80E-01    3.1     0.00001796     -1636.7117148377 -1.41E-04
    60 OT DIIS     0.80E-01    3.1     0.00001735     -1636.7118497928 -1.35E-04
    61 OT DIIS     0.80E-01    3.0     0.00001709     -1636.7119712689 -1.21E-04
    62 OT DIIS     0.80E-01    3.1     0.00001671     -1636.7120634619 -9.22E-05
    63 OT DIIS     0.80E-01    3.1     0.00001627     -1636.7121537140 -9.03E-05
    64 OT DIIS     0.80E-01    3.2     0.00001612     -1636.7122375350 -8.38E-05
    65 OT DIIS     0.80E-01    3.1     0.00001586     -1636.7123268868 -8.94E-05
    66 OT DIIS     0.80E-01    3.2     0.00001553     -1636.7124039701 -7.71E-05
    67 OT DIIS     0.80E-01    3.2     0.00001533     -1636.7124724006 -6.84E-05
    68 OT DIIS     0.80E-01    3.2     0.00001488     -1636.7125317190 -5.93E-05
    69 OT DIIS     0.80E-01    3.2     0.00001472     -1636.7125878629 -5.61E-05
    70 OT DIIS     0.80E-01    3.2     0.00001467     -1636.7126394524 -5.16E-05
    71 OT DIIS     0.80E-01    3.4     0.00001431     -1636.7126970063 -5.76E-05
    72 OT DIIS     0.80E-01    3.2     0.00001408     -1636.7127511334 -5.41E-05
    73 OT DIIS     0.80E-01    3.2     0.00001368     -1636.7128013657 -5.02E-05
    74 OT DIIS     0.80E-01    3.3     0.00001342     -1636.7128432248 -4.19E-05
    75 OT DIIS     0.80E-01    3.2     0.00001331     -1636.7128834481 -4.02E-05
    76 OT DIIS     0.80E-01    3.4     0.00001314     -1636.7129244635 -4.10E-05
    77 OT DIIS     0.80E-01    3.3     0.00001304     -1636.7129709866 -4.65E-05
    78 OT DIIS     0.80E-01    3.2     0.00001292     -1636.7130138563 -4.29E-05
    79 OT DIIS     0.80E-01    3.2     0.00001247     -1636.7130587909 -4.49E-05
    80 OT DIIS     0.80E-01    3.2     0.00001227     -1636.7130994390 -4.06E-05
    81 OT DIIS     0.80E-01    3.2     0.00001209     -1636.7131407575 -4.13E-05
    82 OT DIIS     0.80E-01    3.2     0.00001199     -1636.7131817963 -4.10E-05
    83 OT DIIS     0.80E-01    3.2     0.00001192     -1636.7132284413 -4.66E-05
    84 OT DIIS     0.80E-01    3.2     0.00001173     -1636.7132760729 -4.76E-05
    85 OT DIIS     0.80E-01    3.3     0.00001148     -1636.7133260819 -5.00E-05
    86 OT DIIS     0.80E-01    3.2     0.00001134     -1636.7133673591 -4.13E-05
    87 OT DIIS     0.80E-01    3.1     0.00001101     -1636.7134084850 -4.11E-05
    88 OT DIIS     0.80E-01    3.2     0.00001091     -1636.7134451351 -3.67E-05
    89 OT DIIS     0.80E-01    3.2     0.00001075     -1636.7134838276 -3.87E-05
    90 OT DIIS     0.80E-01    3.2     0.00001063     -1636.7135220471 -3.82E-05
    91 OT DIIS     0.80E-01    3.2     0.00001042     -1636.7135626051 -4.06E-05
    92 OT DIIS     0.80E-01    3.2     0.00001008     -1636.7136028350 -4.02E-05
    93 OT DIIS     0.80E-01    3.2     0.00000974     -1636.7136417864 -3.90E-05

  *** SCF run converged in    93 steps ***


  Electronic density on regular grids:       -895.9999989688        0.0000010312
  Core density on regular grids:              895.9999999264       -0.0000000736
  Total charge density on r-space grids:        0.0000009575
  Total charge density g-space grids:           0.0000009575

  Overlap energy of the core charge distribution:               0.00006456326187
  Self energy of the core charge distribution:              -3531.67332257831958
  Core Hamiltonian energy:                                   1019.89124787169419
  Hartree energy:                                            1266.26918776586467
  Exchange-correlation energy:                               -390.36937493999085
  Dispersion energy:                                           -0.83144446889284

  Total energy:                                             -1636.71364178638260

  outer SCF iter =    1 RMS gradient =   0.97E-05 energy =      -1636.7136417864
  outer SCF loop converged in   1 iterations or   93 steps


 ENERGY| Total FORCE_EVAL ( QS ) energy [a.u.]:            -1636.713674056239370

 --------  Informations at step =     2 ------------
  Optimization Method        =                 BFGS
  Total Energy               =     -1636.7136740562
  Real energy change         =        -0.1224391412
  Predicted change in energy =        -0.2215332731
  Scaling factor             =         0.5951929664
  Step size                  =         0.4724315332
  Trust radius               =         0.4724315332
  Decrease in energy         =                  YES
  Used time                  =              302.864

  Convergence check :
  Max. step size             =         0.4724315332
  Conv. limit for step size  =         0.0030000000
  Convergence in step size   =                   NO
  RMS step size              =         0.0382378103
  Conv. limit for RMS step   =         0.0015000000
  Convergence in RMS step    =                   NO
  Max. gradient              =         0.1021428851
  Conv. limit for gradients  =         0.0004500000
  Conv. for gradients        =                   NO
  RMS gradient               =         0.0086338900
  Conv. limit for RMS grad.  =         0.0003000000
  Conv. for gradients        =                   NO
 ---------------------------------------------------

 --------------------------
 OPTIMIZATION STEP:      3
 --------------------------

  Step is scaled; Scaling factor =  0.90819

 Number of electrons:                                                        896
 Number of occupied orbitals:                                                448
 Number of molecular orbitals:                                               448

 Number of orbital functions:                                               2720
 Number of independent orbital functions:                                   2720

 Extrapolation method: ASPC


 SCF WAVEFUNCTION OPTIMIZATION

  ----------------------------------- OT ---------------------------------------
  Minimizer      : DIIS                : direct inversion
                                         in the iterative subspace
                                         using   7 DIIS vectors
                                         safer DIIS on
  Preconditioner : FULL_SINGLE_INVERSE : inversion of 
                                         H + eS - 2*(Sc)(c^T*H*c+const)(Sc)^T
  Precond_solver : DEFAULT
  stepsize       :    0.08000000                  energy_gap     :    0.08000000
  eps_taylor     :   0.10000E-15                  max_taylor     :             4
  ----------------------------------- OT ---------------------------------------

  Step     Update method      Time    Convergence         Total energy    Change
  ------------------------------------------------------------------------------
     1 OT DIIS     0.80E-01    4.3     0.00179098     -1636.3811690619 -1.64E+03
     2 OT DIIS     0.80E-01    3.2     0.00116818     -1636.5749882917 -1.94E-01
     3 OT DIIS     0.80E-01    3.2     0.00089959     -1636.6335496615 -5.86E-02
     4 OT DIIS     0.80E-01    3.2     0.00066159     -1636.6791389358 -4.56E-02
     5 OT DIIS     0.80E-01    3.2     0.00051607     -1636.6926682712 -1.35E-02
     6 OT DIIS     0.80E-01    3.2     0.00035228     -1636.6976561330 -4.99E-03
     7 OT DIIS     0.80E-01    3.2     0.00015279     -1636.7008100319 -3.15E-03
     8 OT DIIS     0.80E-01    3.3     0.00015312     -1636.7020044659 -1.19E-03
     9 OT DIIS     0.80E-01    3.2     0.00012113     -1636.7025669107 -5.62E-04
    10 OT DIIS     0.80E-01    3.2     0.00009432     -1636.7030221333 -4.55E-04
    11 OT DIIS     0.80E-01    3.2     0.00007569     -1636.7035035880 -4.81E-04
    12 OT DIIS     0.80E-01    3.2     0.00006815     -1636.7039319243 -4.28E-04
    13 OT DIIS     0.80E-01    3.1     0.00006683     -1636.7044513593 -5.19E-04
    14 OT DIIS     0.80E-01    3.0     0.00006406     -1636.7049850674 -5.34E-04
    15 OT DIIS     0.80E-01    3.1     0.00005883     -1636.7056219277 -6.37E-04
    16 OT DIIS     0.80E-01    3.1     0.00005587     -1636.7063879622 -7.66E-04
    17 OT DIIS     0.80E-01    3.1     0.00005299     -1636.7069822948 -5.94E-04
    18 OT DIIS     0.80E-01    3.1     0.00005336     -1636.7074513891 -4.69E-04
    19 OT DIIS     0.80E-01    3.1     0.00004566     -1636.7079198135 -4.68E-04
    20 OT DIIS     0.80E-01    3.1     0.00004091     -1636.7083023290 -3.83E-04
    21 OT DIIS     0.80E-01    3.2     0.00003955     -1636.7086387514 -3.36E-04
    22 OT DIIS     0.80E-01    3.2     0.00003767     -1636.7088743843 -2.36E-04
    23 OT DIIS     0.80E-01    3.1     0.00003571     -1636.7090842358 -2.10E-04
    24 OT DIIS     0.80E-01    3.2     0.00003469     -1636.7093147529 -2.31E-04
    25 OT DIIS     0.80E-01    3.1     0.00003438     -1636.7094915979 -1.77E-04
    26 OT DIIS     0.80E-01    3.2     0.00003421     -1636.7096834425 -1.92E-04
    27 OT DIIS     0.80E-01    3.2     0.00003319     -1636.7098470522 -1.64E-04
    28 OT DIIS     0.80E-01    3.3     0.00003202     -1636.7100355953 -1.89E-04
    29 OT DIIS     0.80E-01    3.2     0.00003163     -1636.7102471022 -2.12E-04
    30 OT DIIS     0.80E-01    3.2     0.00003139     -1636.7104660891 -2.19E-04
    31 OT DIIS     0.80E-01    3.2     0.00003075     -1636.7107062704 -2.40E-04
    32 OT DIIS     0.80E-01    3.2     0.00003021     -1636.7110607514 -3.54E-04
    33 OT DIIS     0.80E-01    3.1     0.00002998     -1636.7113650646 -3.04E-04
    34 OT DIIS     0.80E-01    3.2     0.00002984     -1636.7117217569 -3.57E-04
    35 OT DIIS     0.80E-01    3.1     0.00002907     -1636.7119807692 -2.59E-04
    36 OT DIIS     0.80E-01    3.1     0.00002762     -1636.7122221450 -2.41E-04
    37 OT DIIS     0.80E-01    3.1     0.00002672     -1636.7124221937 -2.00E-04
    38 OT DIIS     0.80E-01    3.2     0.00002633     -1636.7125728730 -1.51E-04
    39 OT DIIS     0.80E-01    3.1     0.00002604     -1636.7127043359 -1.31E-04
    40 OT DIIS     0.80E-01    3.1     0.00002585     -1636.7128908277 -1.86E-04
    41 OT DIIS     0.80E-01    3.2     0.00002614     -1636.7130586095 -1.68E-04
    42 OT DIIS     0.80E-01    3.1     0.00002602     -1636.7132232617 -1.65E-04
    43 OT DIIS     0.80E-01    3.1     0.00002596     -1636.7133385896 -1.15E-04
    44 OT DIIS     0.80E-01    3.2     0.00002516     -1636.7134630273 -1.24E-04
    45 OT DIIS     0.80E-01    3.0     0.00002471     -1636.7136000062 -1.37E-04
    46 OT DIIS     0.80E-01    3.0     0.00002441     -1636.7137485307 -1.49E-04
    47 OT DIIS     0.80E-01    3.1     0.00002403     -1636.7139071651 -1.59E-04
    48 OT DIIS     0.80E-01    3.1     0.00002373     -1636.7140794639 -1.72E-04
    49 OT DIIS     0.80E-01    3.1     0.00002365     -1636.7142209533 -1.41E-04
    50 OT DIIS     0.80E-01    3.0     0.00002367     -1636.7143433701 -1.22E-04
    51 OT DIIS     0.80E-01    3.1     0.00002368     -1636.7144498483 -1.06E-04
    52 OT DIIS     0.80E-01    3.0     0.00002364     -1636.7145594947 -1.10E-04
    53 OT DIIS     0.80E-01    3.0     0.00002339     -1636.7146912918 -1.32E-04
    54 OT DIIS     0.80E-01    3.1     0.00002329     -1636.7148248727 -1.34E-04
    55 OT DIIS     0.80E-01    3.1     0.00002303     -1636.7149671988 -1.42E-04
    56 OT DIIS     0.80E-01    3.1     0.00002275     -1636.7151306626 -1.63E-04
    57 OT DIIS     0.80E-01    3.1     0.00002265     -1636.7152908392 -1.60E-04
    58 OT DIIS     0.80E-01    3.2     0.00002269     -1636.7154505972 -1.60E-04
    59 OT DIIS     0.80E-01    3.1     0.00002258     -1636.7156012247 -1.51E-04
    60 OT DIIS     0.80E-01    3.1     0.00002257     -1636.7157581402 -1.57E-04
    61 OT DIIS     0.80E-01    3.1     0.00002209     -1636.7159545440 -1.96E-04
    62 OT DIIS     0.80E-01    3.1     0.00002205     -1636.7161625919 -2.08E-04
    63 OT DIIS     0.80E-01    3.1     0.00002160     -1636.7163869615 -2.24E-04
    64 OT DIIS     0.80E-01    3.1     0.00002109     -1636.7166545585 -2.68E-04
    65 OT DIIS     0.80E-01    3.1     0.00002083     -1636.7169075180 -2.53E-04
    66 OT DIIS     0.80E-01    3.1     0.00002113     -1636.7171366934 -2.29E-04
    67 OT DIIS     0.80E-01    3.0     0.00002066     -1636.7173122589 -1.76E-04
    68 OT DIIS     0.80E-01    3.0     0.00002057     -1636.7174663250 -1.54E-04
    69 OT DIIS     0.80E-01    3.0     0.00001875     -1636.7176169585 -1.51E-04
    70 OT DIIS     0.80E-01    3.0     0.00001827     -1636.7177358179 -1.19E-04
    71 OT DIIS     0.80E-01    3.1     0.00001721     -1636.7178352189 -9.94E-05
    72 OT DIIS     0.80E-01    3.0     0.00001654     -1636.7179298344 -9.46E-05
    73 OT DIIS     0.80E-01    3.1     0.00001620     -1636.7180131923 -8.34E-05
    74 OT DIIS     0.80E-01    3.0     0.00001627     -1636.7180960817 -8.29E-05
    75 OT DIIS     0.80E-01    3.1     0.00001597     -1636.7181660081 -6.99E-05
    76 OT DIIS     0.80E-01    3.0     0.00001593     -1636.7182301330 -6.41E-05
    77 OT DIIS     0.80E-01    3.1     0.00001509     -1636.7182931894 -6.31E-05
    78 OT DIIS     0.80E-01    3.1     0.00001488     -1636.7183483214 -5.51E-05
    79 OT DIIS     0.80E-01    3.0     0.00001443     -1636.7183986615 -5.03E-05
    80 OT DIIS     0.80E-01    3.0     0.00001412     -1636.7184547797 -5.61E-05
    81 OT DIIS     0.80E-01    3.1     0.00001387     -1636.7185081096 -5.33E-05
    82 OT DIIS     0.80E-01    3.1     0.00001381     -1636.7185574513 -4.93E-05
    83 OT DIIS     0.80E-01    3.0     0.00001351     -1636.7185972569 -3.98E-05
    84 OT DIIS     0.80E-01    3.0     0.00001346     -1636.7186333704 -3.61E-05
    85 OT DIIS     0.80E-01    3.1     0.00001303     -1636.7186713066 -3.79E-05
    86 OT DIIS     0.80E-01    3.0     0.00001299     -1636.7187086958 -3.74E-05
    87 OT DIIS     0.80E-01    3.0     0.00001271     -1636.7187447199 -3.60E-05
    88 OT DIIS     0.80E-01    3.1     0.00001236     -1636.7187824951 -3.78E-05
    89 OT DIIS     0.80E-01    3.1     0.00001211     -1636.7188172440 -3.47E-05
    90 OT DIIS     0.80E-01    3.0     0.00001203     -1636.7188494626 -3.22E-05
    91 OT DIIS     0.80E-01    3.1     0.00001194     -1636.7188801636 -3.07E-05
    92 OT DIIS     0.80E-01    3.0     0.00001205     -1636.7189131487 -3.30E-05
    93 OT DIIS     0.80E-01    3.0     0.00001175     -1636.7189502473 -3.71E-05
    94 OT DIIS     0.80E-01    3.1     0.00001164     -1636.7189868741 -3.66E-05
    95 OT DIIS     0.80E-01    3.0     0.00001134     -1636.7190191479 -3.23E-05
    96 OT DIIS     0.80E-01    3.0     0.00001110     -1636.7190522397 -3.31E-05
    97 OT DIIS     0.80E-01    3.0     0.00001097     -1636.7190870953 -3.49E-05
    98 OT DIIS     0.80E-01    3.1     0.00001102     -1636.7191252187 -3.81E-05
    99 OT DIIS     0.80E-01    3.0     0.00001097     -1636.7191625808 -3.74E-05
   100 OT DIIS     0.80E-01    3.1     0.00001100     -1636.7191985410 -3.60E-05
   101 OT DIIS     0.80E-01    3.0     0.00001062     -1636.7192294396 -3.09E-05
   102 OT DIIS     0.80E-01    3.1     0.00001048     -1636.7192554100 -2.60E-05
   103 OT DIIS     0.80E-01    3.0     0.00001037     -1636.7192778153 -2.24E-05
   104 OT DIIS     0.80E-01    3.0     0.00001031     -1636.7193073666 -2.96E-05
   105 OT DIIS     0.80E-01    3.0     0.00001028     -1636.7193483764 -4.10E-05
   106 OT DIIS     0.80E-01    3.1     0.00001027     -1636.7193948635 -4.65E-05
   107 OT DIIS     0.80E-01    3.1     0.00001005     -1636.7194324127 -3.75E-05
   108 OT DIIS     0.80E-01    3.1     0.00000991     -1636.7194615653 -2.92E-05

  *** SCF run converged in   108 steps ***


  Electronic density on regular grids:       -895.9999995571        0.0000004429
  Core density on regular grids:              895.9999999252       -0.0000000748
  Total charge density on r-space grids:        0.0000003681
  Total charge density g-space grids:           0.0000003681

  Overlap energy of the core charge distribution:               0.00004151042733
  Self energy of the core charge distribution:              -3531.67332257831958
  Core Hamiltonian energy:                                   1016.33895028141819
  Hartree energy:                                            1268.73266230182935
  Exchange-correlation energy:                               -389.28561156060863
  Dispersion energy:                                           -0.83218152000907

  Total energy:                                             -1636.71946156526269

  outer SCF iter =    1 RMS gradient =   0.99E-05 energy =      -1636.7194615653
  outer SCF loop converged in   1 iterations or  108 steps


 ENERGY| Total FORCE_EVAL ( QS ) energy [a.u.]:            -1636.719491450645592

 --------  Informations at step =     3 ------------
  Optimization Method        =                 BFGS
  Total Energy               =     -1636.7194914506
  Real energy change         =        -0.0058173944
  Predicted change in energy =        -0.1107366795
  Scaling factor             =         0.9081897948
  Step size                  =         0.4724315332
  Trust radius               =         0.4724315332
  Decrease in energy         =                  YES
  Used time                  =              344.001

  Convergence check :
  Max. step size             =         0.4724315332
  Conv. limit for step size  =         0.0030000000
  Convergence in step size   =                   NO
  RMS step size              =         0.0409318512
  Conv. limit for RMS step   =         0.0015000000
  Convergence in RMS step    =                   NO
  Max. gradient              =         0.0966956999
  Conv. limit for gradients  =         0.0004500000
  Conv. for gradients        =                   NO
  RMS gradient               =         0.0070114673
  Conv. limit for RMS grad.  =         0.0003000000
  Conv. for gradients        =                   NO
 ---------------------------------------------------

 --------------------------
 OPTIMIZATION STEP:      4
 --------------------------

  Step is scaled; Scaling factor =  0.87655

 Number of electrons:                                                        896
 Number of occupied orbitals:                                                448
 Number of molecular orbitals:                                               448

 Number of orbital functions:                                               2720
 Number of independent orbital functions:                                   2720

 Extrapolation method: ASPC


 SCF WAVEFUNCTION OPTIMIZATION

  ----------------------------------- OT ---------------------------------------
  Minimizer      : DIIS                : direct inversion
                                         in the iterative subspace
                                         using   7 DIIS vectors
                                         safer DIIS on
  Preconditioner : FULL_SINGLE_INVERSE : inversion of 
                                         H + eS - 2*(Sc)(c^T*H*c+const)(Sc)^T
  Precond_solver : DEFAULT
  stepsize       :    0.08000000                  energy_gap     :    0.08000000
  eps_taylor     :   0.10000E-15                  max_taylor     :             4
  ----------------------------------- OT ---------------------------------------

  Step     Update method      Time    Convergence         Total energy    Change
  ------------------------------------------------------------------------------
     1 OT DIIS     0.80E-01    4.1     0.00212083     -1636.2819222454 -1.64E+03
     2 OT DIIS     0.80E-01    3.1     0.00165923     -1636.5250921547 -2.43E-01
     3 OT DIIS     0.80E-01    3.0     0.00179302     -1636.5835412873 -5.84E-02
     4 OT DIIS     0.80E-01    3.0     0.00263735     -1636.6040813605 -2.05E-02
     5 OT DIIS     0.80E-01    3.0     0.00151698     -1636.6530191493 -4.89E-02
     6 OT DIIS     0.80E-01    3.0     0.00062827     -1636.6806994858 -2.77E-02
     7 OT DIIS     0.80E-01    3.1     0.00051626     -1636.6888575340 -8.16E-03
     8 OT DIIS     0.80E-01    3.0     0.00043720     -1636.6923854582 -3.53E-03
     9 OT DIIS     0.80E-01    3.1     0.00023089     -1636.6958142052 -3.43E-03
    10 OT DIIS     0.80E-01    3.1     0.00019422     -1636.6983107011 -2.50E-03
    11 OT DIIS     0.80E-01    3.1     0.00027678     -1636.6990172394 -7.07E-04
    12 OT DIIS     0.80E-01    3.0     0.00015420     -1636.7001866544 -1.17E-03
    13 OT DIIS     0.80E-01    3.1     0.00022599     -1636.7005411428 -3.54E-04
    14 OT DIIS     0.80E-01    3.0     0.00013344     -1636.7013895684 -8.48E-04
    15 OT DIIS     0.80E-01    3.0     0.00011701     -1636.7020283364 -6.39E-04
    16 OT DIIS     0.80E-01    3.1     0.00013503     -1636.7027652141 -7.37E-04
    17 OT DIIS     0.80E-01    3.0     0.00011335     -1636.7036495130 -8.84E-04
    18 OT DIIS     0.80E-01    3.1     0.00010820     -1636.7044181197 -7.69E-04
    19 OT DIIS     0.80E-01    3.1     0.00017463     -1636.7051854730 -7.67E-04
    20 OT DIIS     0.80E-01    3.1     0.00011768     -1636.7056922062 -5.07E-04
    21 OT DIIS     0.80E-01    3.1     0.00017544     -1636.7064938565 -8.02E-04
    22 OT DIIS     0.80E-01    3.2     0.00012776     -1636.7067416190 -2.48E-04
    23 OT DIIS     0.80E-01    3.2     0.00010198     -1636.7070616538 -3.20E-04
    24 OT DIIS     0.80E-01    3.1     0.00011476     -1636.7074390110 -3.77E-04
    25 OT DIIS     0.80E-01    3.0     0.00009028     -1636.7078039894 -3.65E-04
    26 OT DIIS     0.80E-01    3.0     0.00008318     -1636.7079809733 -1.77E-04
    27 OT DIIS     0.80E-01    3.1     0.00009942     -1636.7082968920 -3.16E-04
    28 OT DIIS     0.80E-01    3.1     0.00008351     -1636.7083698548 -7.30E-05
    29 OT DIIS     0.80E-01    3.1     0.00008783     -1636.7087997398 -4.30E-04
    30 OT DIIS     0.80E-01    3.1     0.00009198     -1636.7089051419 -1.05E-04
    31 OT DIIS     0.80E-01    3.0     0.00007511     -1636.7091916192 -2.86E-04
    32 OT DIIS     0.80E-01    3.1     0.00008684     -1636.7095760128 -3.84E-04
    33 OT DIIS     0.80E-01    3.1     0.00007810     -1636.7099322468 -3.56E-04
    34 OT DIIS     0.80E-01    3.1     0.00007662     -1636.7101676595 -2.35E-04
    35 OT DIIS     0.80E-01    3.1     0.00009696     -1636.7104964862 -3.29E-04
    36 OT DIIS     0.80E-01    3.0     0.00008526     -1636.7104379897  5.85E-05
    37 OT DIIS     0.80E-01    3.0     0.00008148     -1636.7108293836 -3.91E-04
    38 OT DIIS     0.80E-01    3.0     0.00008420     -1636.7108204164  8.97E-06
    39 OT DIIS     0.80E-01    3.1     0.00006455     -1636.7109583689 -1.38E-04
    40 OT DIIS     0.80E-01    3.1     0.00006572     -1636.7111387735 -1.80E-04
    41 OT DIIS     0.80E-01    3.1     0.00006161     -1636.7113224816 -1.84E-04
    42 OT DIIS     0.80E-01    3.1     0.00006002     -1636.7114936244 -1.71E-04
    43 OT DIIS     0.80E-01    3.1     0.00006878     -1636.7117707112 -2.77E-04
    44 OT DIIS     0.80E-01    3.1     0.00007093     -1636.7118091673 -3.85E-05
    45 OT DIIS     0.80E-01    3.1     0.00006811     -1636.7121425649 -3.33E-04
    46 OT DIIS     0.80E-01    3.2     0.00007969     -1636.7122029372 -6.04E-05
    47 OT DIIS     0.80E-01    3.1     0.00006345     -1636.7123789594 -1.76E-04
    48 OT DIIS     0.80E-01    3.1     0.00006567     -1636.7125188528 -1.40E-04
    49 OT DIIS     0.80E-01    3.1     0.00006005     -1636.7126146142 -9.58E-05
    50 OT DIIS     0.80E-01    3.0     0.00005485     -1636.7127187170 -1.04E-04
    51 OT DIIS     0.80E-01    3.0     0.00005696     -1636.7128684467 -1.50E-04
    52 OT DIIS     0.80E-01    3.0     0.00005678     -1636.7128986121 -3.02E-05
    53 OT DIIS     0.80E-01    3.1     0.00005356     -1636.7130700262 -1.71E-04
    54 OT DIIS     0.80E-01    3.0     0.00005797     -1636.7131616281 -9.16E-05
    55 OT DIIS     0.80E-01    3.0     0.00005343     -1636.7133275351 -1.66E-04
    56 OT DIIS     0.80E-01    3.1     0.00005592     -1636.7134899047 -1.62E-04
    57 OT DIIS     0.80E-01    3.1     0.00005554     -1636.7135846943 -9.48E-05
    58 OT DIIS     0.80E-01    3.1     0.00005227     -1636.7137491101 -1.64E-04
    59 OT DIIS     0.80E-01    3.3     0.00005499     -1636.7138603071 -1.11E-04
    60 OT DIIS     0.80E-01    3.2     0.00005564     -1636.7139108347 -5.05E-05
    61 OT DIIS     0.80E-01    3.4     0.00005114     -1636.7139909328 -8.01E-05
    62 OT DIIS     0.80E-01    3.4     0.00005204     -1636.7140715825 -8.06E-05
    63 OT DIIS     0.80E-01    3.2     0.00004899     -1636.7141731131 -1.02E-04
    64 OT DIIS     0.80E-01    3.3     0.00004935     -1636.7142958746 -1.23E-04
    65 OT DIIS     0.80E-01    3.3     0.00004963     -1636.7143732303 -7.74E-05
    66 OT DIIS     0.80E-01    3.3     0.00004840     -1636.7145564408 -1.83E-04
    67 OT DIIS     0.80E-01    3.5     0.00005045     -1636.7146977209 -1.41E-04
    68 OT DIIS     0.80E-01    3.2     0.00005286     -1636.7148636516 -1.66E-04
    69 OT DIIS     0.80E-01    3.1     0.00005109     -1636.7149017762 -3.81E-05
    70 OT DIIS     0.80E-01    3.2     0.00005396     -1636.7150500867 -1.48E-04
    71 OT DIIS     0.80E-01    3.1     0.00004951     -1636.7151485596 -9.85E-05
    72 OT DIIS     0.80E-01    3.3     0.00005003     -1636.7152663324 -1.18E-04
    73 OT DIIS     0.80E-01    3.2     0.00005097     -1636.7153275064 -6.12E-05
    74 OT DIIS     0.80E-01    3.2     0.00004764     -1636.7154647835 -1.37E-04
    75 OT DIIS     0.80E-01    3.3     0.00004954     -1636.7155666104 -1.02E-04
    76 OT DIIS     0.80E-01    3.2     0.00005197     -1636.7157309745 -1.64E-04
    77 OT DIIS     0.80E-01    3.3     0.00005166     -1636.7157639143 -3.29E-05
    78 OT DIIS     0.80E-01    3.5     0.00005597     -1636.7159045670 -1.41E-04
    79 OT DIIS     0.80E-01    3.4     0.00005021     -1636.7159995726 -9.50E-05
    80 OT DIIS     0.80E-01    3.5     0.00005155     -1636.7161172328 -1.18E-04
    81 OT DIIS     0.80E-01    3.3     0.00005386     -1636.7161849971 -6.78E-05
    82 OT DIIS     0.80E-01    3.4     0.00004763     -1636.7162673996 -8.24E-05
    83 OT DIIS     0.80E-01    3.4     0.00004818     -1636.7163171303 -4.97E-05
    84 OT DIIS     0.80E-01    3.2     0.00004828     -1636.7164423774 -1.25E-04
    85 OT DIIS     0.80E-01    3.4     0.00004680     -1636.7164556394 -1.33E-05
    86 OT DIIS     0.80E-01    3.4     0.00004816     -1636.7165488138 -9.32E-05
    87 OT DIIS     0.80E-01    3.4     0.00004445     -1636.7166157128 -6.69E-05
    88 OT DIIS     0.80E-01    3.4     0.00004525     -1636.7167212873 -1.06E-04
    89 OT DIIS     0.80E-01    3.4     0.00004830     -1636.7168199152 -9.86E-05
    90 OT DIIS     0.80E-01    3.4     0.00004537     -1636.7169042158 -8.43E-05
    91 OT DIIS     0.80E-01    3.3     0.00004784     -1636.7169675389 -6.33E-05
    92 OT DIIS     0.80E-01    3.3     0.00004912     -1636.7170908854 -1.23E-04
    93 OT DIIS     0.80E-01    3.5     0.00004804     -1636.7171133871 -2.25E-05
    94 OT DIIS     0.80E-01    3.5     0.00005011     -1636.7171797009 -6.63E-05
    95 OT DIIS     0.80E-01    3.4     0.00004314     -1636.7172192581 -3.96E-05
    96 OT DIIS     0.80E-01    3.4     0.00004228     -1636.7172851486 -6.59E-05
    97 OT DIIS     0.80E-01    3.4     0.00004282     -1636.7173652450 -8.01E-05
    98 OT DIIS     0.80E-01    3.5     0.00004056     -1636.7174207406 -5.55E-05
    99 OT DIIS     0.80E-01    3.3     0.00004207     -1636.7174823325 -6.16E-05
   100 OT DIIS     0.80E-01    3.4     0.00004289     -1636.7175803390 -9.80E-05
   101 OT DIIS     0.80E-01    3.6     0.00004396     -1636.7176398349 -5.95E-05
   102 OT DIIS     0.80E-01    3.6     0.00004732     -1636.7177051152 -6.53E-05
   103 OT DIIS     0.80E-01    3.4     0.00004203     -1636.7177447806 -3.97E-05
   104 OT DIIS     0.80E-01    3.3     0.00004174     -1636.7177933383 -4.86E-05
   105 OT DIIS     0.80E-01    3.3     0.00004163     -1636.7178770207 -8.37E-05
   106 OT DIIS     0.80E-01    3.4     0.00003872     -1636.7179063900 -2.94E-05
   107 OT DIIS     0.80E-01    3.4     0.00003911     -1636.7179511279 -4.47E-05
   108 OT DIIS     0.80E-01    3.2     0.00003836     -1636.7180161259 -6.50E-05
   109 OT DIIS     0.80E-01    3.3     0.00003895     -1636.7180786780 -6.26E-05
   110 OT DIIS     0.80E-01    3.1     0.00004064     -1636.7181367189 -5.80E-05
   111 OT DIIS     0.80E-01    3.4     0.00003867     -1636.7181841691 -4.75E-05
   112 OT DIIS     0.80E-01    3.4     0.00003936     -1636.7182355611 -5.14E-05
   113 OT DIIS     0.80E-01    3.2     0.00003953     -1636.7183334578 -9.79E-05
   114 OT DIIS     0.80E-01    3.5     0.00003823     -1636.7183565146 -2.31E-05
   115 OT DIIS     0.80E-01    3.4     0.00003850     -1636.7183972987 -4.08E-05
   116 OT DIIS     0.80E-01    3.4     0.00003726     -1636.7184375574 -4.03E-05
   117 OT DIIS     0.80E-01    3.3     0.00003701     -1636.7184971370 -5.96E-05
   118 OT DIIS     0.80E-01    3.3     0.00003715     -1636.7185385746 -4.14E-05
   119 OT DIIS     0.80E-01    3.6     0.00003585     -1636.7185762052 -3.76E-05
   120 OT DIIS     0.80E-01    3.4     0.00003576     -1636.7186183954 -4.22E-05
   121 OT DIIS     0.80E-01    3.2     0.00003573     -1636.7187074389 -8.90E-05
   122 OT DIIS     0.80E-01    3.2     0.00003626     -1636.7187465334 -3.91E-05
   123 OT DIIS     0.80E-01    3.4     0.00003643     -1636.7187974094 -5.09E-05
   124 OT DIIS     0.80E-01    3.3     0.00003656     -1636.7188281813 -3.08E-05
   125 OT DIIS     0.80E-01    3.4     0.00003630     -1636.7188981939 -7.00E-05
   126 OT DIIS     0.80E-01    3.2     0.00003630     -1636.7189275886 -2.94E-05
   127 OT DIIS     0.80E-01    3.3     0.00003505     -1636.7189548374 -2.72E-05
   128 OT DIIS     0.80E-01    3.3     0.00003409     -1636.7189812168 -2.64E-05
   129 OT DIIS     0.80E-01    3.3     0.00003355     -1636.7190530414 -7.18E-05
   130 OT DIIS     0.80E-01    3.2     0.00003384     -1636.7190945853 -4.15E-05
   131 OT DIIS     0.80E-01    3.2     0.00003384     -1636.7191406418 -4.61E-05
   132 OT DIIS     0.80E-01    3.3     0.00003445     -1636.7191779109 -3.73E-05
   133 OT DIIS     0.80E-01    3.5     0.00003422     -1636.7192566793 -7.88E-05
   134 OT DIIS     0.80E-01    3.4     0.00003503     -1636.7192902391 -3.36E-05
   135 OT DIIS     0.80E-01    3.3     0.00003479     -1636.7193188490 -2.86E-05
   136 OT DIIS     0.80E-01    3.2     0.00003363     -1636.7193377055 -1.89E-05
   137 OT DIIS     0.80E-01    3.3     0.00003293     -1636.7194001637 -6.25E-05
   138 OT DIIS     0.80E-01    3.1     0.00003283     -1636.7194385733 -3.84E-05
   139 OT DIIS     0.80E-01    3.1     0.00003253     -1636.7194711542 -3.26E-05
   140 OT DIIS     0.80E-01    3.1     0.00003273     -1636.7195049842 -3.38E-05
   141 OT DIIS     0.80E-01    3.1     0.00003234     -1636.7195730576 -6.81E-05
   142 OT DIIS     0.80E-01    3.4     0.00003317     -1636.7196145142 -4.15E-05
   143 OT DIIS     0.80E-01    3.4     0.00003357     -1636.7196558203 -4.13E-05
   144 OT DIIS     0.80E-01    3.3     0.00003297     -1636.7196872082 -3.14E-05
   145 OT DIIS     0.80E-01    3.2     0.00003275     -1636.7197409163 -5.37E-05
   146 OT DIIS     0.80E-01    3.3     0.00003258     -1636.7197895281 -4.86E-05
   147 OT DIIS     0.80E-01    3.3     0.00003236     -1636.7198100040 -2.05E-05
   148 OT DIIS     0.80E-01    3.2     0.00003246     -1636.7198367869 -2.68E-05
   149 OT DIIS     0.80E-01    3.2     0.00003161     -1636.7198903211 -5.35E-05
   150 OT DIIS     0.80E-01    3.3     0.00003202     -1636.7199267010 -3.64E-05
   151 OT DIIS     0.80E-01    3.2     0.00003219     -1636.7199670842 -4.04E-05
   152 OT DIIS     0.80E-01    3.3     0.00003188     -1636.7200054710 -3.84E-05
   153 OT DIIS     0.80E-01    3.2     0.00003197     -1636.7200478945 -4.24E-05
   154 OT DIIS     0.80E-01    3.3     0.00003184     -1636.7201131263 -6.52E-05
   155 OT DIIS     0.80E-01    3.3     0.00003218     -1636.7201373371 -2.42E-05
   156 OT DIIS     0.80E-01    3.2     0.00003267     -1636.7201717633 -3.44E-05
   157 OT DIIS     0.80E-01    3.3     0.00003152     -1636.7202129372 -4.12E-05
   158 OT DIIS     0.80E-01    3.3     0.00003181     -1636.7202426846 -2.97E-05
   159 OT DIIS     0.80E-01    3.3     0.00003166     -1636.7202775266 -3.48E-05
   160 OT DIIS     0.80E-01    3.2     0.00003113     -1636.7203133562 -3.58E-05
   161 OT DIIS     0.80E-01    3.2     0.00003104     -1636.7203392049 -2.58E-05
   162 OT DIIS     0.80E-01    3.4     0.00003076     -1636.7204013494 -6.21E-05
   163 OT DIIS     0.80E-01    3.3     0.00003117     -1636.7204320929 -3.07E-05
   164 OT DIIS     0.80E-01    3.2     0.00003171     -1636.7204818434 -4.98E-05
   165 OT DIIS     0.80E-01    3.2     0.00003103     -1636.7205151513 -3.33E-05
   166 OT DIIS     0.80E-01    3.2     0.00003152     -1636.7205469680 -3.18E-05
   167 OT DIIS     0.80E-01    3.3     0.00003141     -1636.7205820345 -3.51E-05
   168 OT DIIS     0.80E-01    3.3     0.00003080     -1636.7206225194 -4.05E-05
   169 OT DIIS     0.80E-01    3.3     0.00003066     -1636.7206304281 -7.91E-06
   170 OT DIIS     0.80E-01    3.3     0.00003013     -1636.7206848431 -5.44E-05
   171 OT DIIS     0.80E-01    3.3     0.00003024     -1636.7207133989 -2.86E-05
   172 OT DIIS     0.80E-01    3.4     0.00003047     -1636.7207655162 -5.21E-05
   173 OT DIIS     0.80E-01    3.4     0.00003018     -1636.7207930296 -2.75E-05
   174 OT DIIS     0.80E-01    3.3     0.00003055     -1636.7208300625 -3.70E-05
   175 OT DIIS     0.80E-01    3.2     0.00003058     -1636.7208698147 -3.98E-05
   176 OT DIIS     0.80E-01    3.2     0.00003025     -1636.7209210598 -5.12E-05
   177 OT DIIS     0.80E-01    3.2     0.00003039     -1636.7209205798  4.80E-07
   178 OT DIIS     0.80E-01    3.2     0.00002981     -1636.7209706210 -5.00E-05
   179 OT DIIS     0.80E-01    3.2     0.00002983     -1636.7209965789 -2.60E-05
   180 OT DIIS     0.80E-01    3.2     0.00002986     -1636.7210463441 -4.98E-05
   181 OT DIIS     0.80E-01    3.2     0.00002964     -1636.7210656309 -1.93E-05
   182 OT DIIS     0.80E-01    3.3     0.00002977     -1636.7211021308 -3.65E-05
   183 OT DIIS     0.80E-01    3.2     0.00002975     -1636.7211411990 -3.91E-05
   184 OT DIIS     0.80E-01    3.3     0.00002961     -1636.7211970044 -5.58E-05
   185 OT DIIS     0.80E-01    3.1     0.00002994     -1636.7212100545 -1.31E-05
   186 OT DIIS     0.80E-01    3.3     0.00002953     -1636.7212567566 -4.67E-05
   187 OT DIIS     0.80E-01    3.2     0.00002964     -1636.7212879646 -3.12E-05
   188 OT DIIS     0.80E-01    3.2     0.00002962     -1636.7213377695 -4.98E-05
   189 OT DIIS     0.80E-01    3.3     0.00002948     -1636.7213514363 -1.37E-05
   190 OT DIIS     0.80E-01    3.2     0.00002952     -1636.7213837684 -3.23E-05
   191 OT DIIS     0.80E-01    3.2     0.00002944     -1636.7214164225 -3.27E-05
   192 OT DIIS     0.80E-01    3.3     0.00002927     -1636.7214647419 -4.83E-05
   193 OT DIIS     0.80E-01    3.2     0.00002955     -1636.7214956055 -3.09E-05
   194 OT DIIS     0.80E-01    3.2     0.00002930     -1636.7215372786 -4.17E-05
   195 OT DIIS     0.80E-01    3.2     0.00002949     -1636.7215808225 -4.35E-05
   196 OT DIIS     0.80E-01    3.2     0.00002950     -1636.7216312198 -5.04E-05
   197 OT DIIS     0.80E-01    3.3     0.00002951     -1636.7216547270 -2.35E-05
   198 OT DIIS     0.80E-01    3.3     0.00002968     -1636.7216901689 -3.54E-05
   199 OT DIIS     0.80E-01    3.2     0.00002959     -1636.7217175094 -2.73E-05
   200 OT DIIS     0.80E-01    3.2     0.00002922     -1636.7217537412 -3.62E-05

  Leaving inner SCF loop after reaching   200 steps.


  Electronic density on regular grids:       -896.0000012676       -0.0000012676
  Core density on regular grids:              895.9999999249       -0.0000000751
  Total charge density on r-space grids:       -0.0000013427
  Total charge density g-space grids:          -0.0000013427

  Overlap energy of the core charge distribution:               0.00003626547645
  Self energy of the core charge distribution:              -3531.67332257831958
  Core Hamiltonian energy:                                   1014.99070806276632
  Hartree energy:                                            1269.66276933961694
  Exchange-correlation energy:                               -388.86971445111112
  Dispersion energy:                                           -0.83223037963233

  Total energy:                                             -1636.72175374120343

  outer SCF iter =    1 RMS gradient =   0.29E-04 energy =      -1636.7217537412

  ----------------------------------- OT ---------------------------------------
  Minimizer      : DIIS                : direct inversion
                                         in the iterative subspace
                                         using   7 DIIS vectors
                                         safer DIIS on
  Preconditioner : FULL_SINGLE_INVERSE : inversion of 
                                         H + eS - 2*(Sc)(c^T*H*c+const)(Sc)^T
  Precond_solver : DEFAULT
  stepsize       :    0.08000000                  energy_gap     :    0.08000000
  eps_taylor     :   0.10000E-15                  max_taylor     :             4
  ----------------------------------- OT ---------------------------------------

  Step     Update method      Time    Convergence         Total energy    Change
  ------------------------------------------------------------------------------
     1 OT DIIS     0.80E-01    8.6     0.00003210     -1636.7217936355 -3.99E-05
     2 OT DIIS     0.80E-01    3.3     0.00003494     -1636.7218882223 -9.46E-05
     3 OT DIIS     0.80E-01    3.2     0.00003133     -1636.7219173307 -2.91E-05
     4 OT DIIS     0.80E-01    3.2     0.00003171     -1636.7220872584 -1.70E-04
     5 OT DIIS     0.80E-01    3.3     0.00003065     -1636.7222276076 -1.40E-04
     6 OT DIIS     0.80E-01    3.2     0.00003065     -1636.7223849559 -1.57E-04
     7 OT DIIS     0.80E-01    3.3     0.00002985     -1636.7228229473 -4.38E-04
     8 OT DIIS     0.80E-01    3.2     0.00002953     -1636.7231554771 -3.33E-04
     9 OT DIIS     0.80E-01    3.2     0.00002819     -1636.7239186589 -7.63E-04
    10 OT DIIS     0.80E-01    3.3     0.00003003     -1636.7243512162 -4.33E-04
    11 OT DIIS     0.80E-01    3.2     0.00002906     -1636.7246906617 -3.39E-04
    12 OT DIIS     0.80E-01    3.2     0.00002541     -1636.7250250858 -3.34E-04
    13 OT DIIS     0.80E-01    3.2     0.00002500     -1636.7252069571 -1.82E-04
    14 OT DIIS     0.80E-01    3.2     0.00002482     -1636.7252962274 -8.93E-05
    15 OT DIIS     0.80E-01    3.2     0.00002193     -1636.7255071868 -2.11E-04
    16 OT DIIS     0.80E-01    3.2     0.00002194     -1636.7256487786 -1.42E-04
    17 OT DIIS     0.80E-01    3.2     0.00001836     -1636.7257940334 -1.45E-04
    18 OT DIIS     0.80E-01    3.3     0.00001782     -1636.7258302150 -3.62E-05
    19 OT DIIS     0.80E-01    3.2     0.00001675     -1636.7258586811 -2.85E-05
    20 OT DIIS     0.80E-01    3.2     0.00001655     -1636.7258976585 -3.90E-05
    21 OT DIIS     0.80E-01    3.2     0.00001678     -1636.7259563404 -5.87E-05
    22 OT DIIS     0.80E-01    3.2     0.00001904     -1636.7260243169 -6.80E-05
    23 OT DIIS     0.80E-01    3.3     0.00001451     -1636.7260921315 -6.78E-05
    24 OT DIIS     0.80E-01    3.3     0.00001351     -1636.7261334777 -4.13E-05
    25 OT DIIS     0.80E-01    3.6     0.00001306     -1636.7261822593 -4.88E-05
    26 OT DIIS     0.80E-01    3.1     0.00001384     -1636.7262421061 -5.98E-05
    27 OT DIIS     0.80E-01    3.0     0.00001421     -1636.7263285413 -8.64E-05
    28 OT DIIS     0.80E-01    3.2     0.00001411     -1636.7264025884 -7.40E-05
    29 OT DIIS     0.80E-01    3.3     0.00001144     -1636.7264571717 -5.46E-05
    30 OT DIIS     0.80E-01    3.2     0.00001097     -1636.7264905637 -3.34E-05
    31 OT DIIS     0.80E-01    3.2     0.00000990     -1636.7265158371 -2.53E-05

  *** SCF run converged in    31 steps ***


  Electronic density on regular grids:       -896.0000014059       -0.0000014059
  Core density on regular grids:              895.9999999249       -0.0000000751
  Total charge density on r-space grids:       -0.0000014810
  Total charge density g-space grids:          -0.0000014810

  Overlap energy of the core charge distribution:               0.00003626547645
  Self energy of the core charge distribution:              -3531.67332257831958
  Core Hamiltonian energy:                                   1015.01891183624514
  Hartree energy:                                            1269.63769666047119
  Exchange-correlation energy:                               -388.87760764133338
  Dispersion energy:                                           -0.83223037963233

  Total energy:                                             -1636.72651583709262

  outer SCF iter =    2 RMS gradient =   0.99E-05 energy =      -1636.7265158371
  outer SCF loop converged in   2 iterations or  231 steps


 ENERGY| Total FORCE_EVAL ( QS ) energy [a.u.]:            -1636.726549344259865

 --------  Informations at step =     4 ------------
  Optimization Method        =                 BFGS
  Total Energy               =     -1636.7265493443
  Real energy change         =        -0.0070578936
  Predicted change in energy =        -0.0913296964
  Scaling factor             =         0.8765483177
  Step size                  =         0.4724315332
  Trust radius               =         0.4724315332
  Decrease in energy         =                  YES
  Used time                  =              758.753

  Convergence check :
  Max. step size             =         0.4724315332
  Conv. limit for step size  =         0.0030000000
  Convergence in step size   =                   NO
  RMS step size              =         0.0345429851
  Conv. limit for RMS step   =         0.0015000000
  Convergence in RMS step    =                   NO
  Max. gradient              =         0.0989023935
  Conv. limit for gradients  =         0.0004500000
  Conv. for gradients        =                   NO
  RMS gradient               =         0.0071174970
  Conv. limit for RMS grad.  =         0.0003000000
  Conv. for gradients        =                   NO
 ---------------------------------------------------

 --------------------------
 OPTIMIZATION STEP:      5
 --------------------------

 Number of electrons:                                                        896
 Number of occupied orbitals:                                                448
 Number of molecular orbitals:                                               448

 Number of orbital functions:                                               2720
 Number of independent orbital functions:                                   2720

 Extrapolation method: ASPC


 SCF WAVEFUNCTION OPTIMIZATION

  ----------------------------------- OT ---------------------------------------
  Minimizer      : DIIS                : direct inversion
                                         in the iterative subspace
                                         using   7 DIIS vectors
                                         safer DIIS on
  Preconditioner : FULL_SINGLE_INVERSE : inversion of 
                                         H + eS - 2*(Sc)(c^T*H*c+const)(Sc)^T
  Precond_solver : DEFAULT
  stepsize       :    0.08000000                  energy_gap     :    0.08000000
  eps_taylor     :   0.10000E-15                  max_taylor     :             4
  ----------------------------------- OT ---------------------------------------

  Step     Update method      Time    Convergence         Total energy    Change
  ------------------------------------------------------------------------------
     1 OT DIIS     0.80E-01    4.6     0.00217393     -1636.2370387408 -1.64E+03
     2 OT DIIS     0.80E-01    3.3     0.00179877     -1636.4770588895 -2.40E-01
     3 OT DIIS     0.80E-01    3.2     0.00144095     -1636.5506284329 -7.36E-02
     4 OT DIIS     0.80E-01    3.2     0.00124283     -1636.6087656586 -5.81E-02
     5 OT DIIS     0.80E-01    3.2     0.00108428     -1636.6409437235 -3.22E-02
     6 OT DIIS     0.80E-01    3.3     0.00076734     -1636.6567554354 -1.58E-02
     7 OT DIIS     0.80E-01    3.2     0.00064019     -1636.6657889122 -9.03E-03
     8 OT DIIS     0.80E-01    3.2     0.00033896     -1636.6720161822 -6.23E-03
     9 OT DIIS     0.80E-01    3.2     0.00036508     -1636.6753684487 -3.35E-03
    10 OT DIIS     0.80E-01    3.4     0.00025691     -1636.6779181224 -2.55E-03
    11 OT DIIS     0.80E-01    3.2     0.00018127     -1636.6807171870 -2.80E-03
    12 OT DIIS     0.80E-01    3.2     0.00022399     -1636.6826956004 -1.98E-03
    13 OT DIIS     0.80E-01    3.3     0.00017492     -1636.6845928597 -1.90E-03
    14 OT DIIS     0.80E-01    3.2     0.00016734     -1636.6863856000 -1.79E-03
    15 OT DIIS     0.80E-01    3.2     0.00018668     -1636.6877084143 -1.32E-03
    16 OT DIIS     0.80E-01    3.2     0.00016449     -1636.6893579274 -1.65E-03
    17 OT DIIS     0.80E-01    3.2     0.00014880     -1636.6908826083 -1.52E-03
    18 OT DIIS     0.80E-01    3.2     0.00016715     -1636.6919887077 -1.11E-03
    19 OT DIIS     0.80E-01    3.3     0.00012538     -1636.6930747214 -1.09E-03
    20 OT DIIS     0.80E-01    3.2     0.00014488     -1636.6941853822 -1.11E-03
    21 OT DIIS     0.80E-01    3.2     0.00013189     -1636.6946761806 -4.91E-04
    22 OT DIIS     0.80E-01    3.3     0.00012602     -1636.6951053325 -4.29E-04
    23 OT DIIS     0.80E-01    3.2     0.00012768     -1636.6957349021 -6.30E-04
    24 OT DIIS     0.80E-01    3.2     0.00011486     -1636.6959526580 -2.18E-04
    25 OT DIIS     0.80E-01    3.2     0.00010154     -1636.6961312348 -1.79E-04
    26 OT DIIS     0.80E-01    3.3     0.00010006     -1636.6964337367 -3.03E-04
    27 OT DIIS     0.80E-01    3.3     0.00008266     -1636.6966794944 -2.46E-04
    28 OT DIIS     0.80E-01    3.6     0.00008343     -1636.6969281320 -2.49E-04
    29 OT DIIS     0.80E-01    3.3     0.00008186     -1636.6971410139 -2.13E-04
    30 OT DIIS     0.80E-01    3.2     0.00008063     -1636.6973507477 -2.10E-04
    31 OT DIIS     0.80E-01    3.2     0.00008078     -1636.6976971175 -3.46E-04
    32 OT DIIS     0.80E-01    3.3     0.00008627     -1636.6979114559 -2.14E-04
    33 OT DIIS     0.80E-01    3.4     0.00008171     -1636.6980959727 -1.85E-04
    34 OT DIIS     0.80E-01    3.4     0.00008647     -1636.6983814242 -2.85E-04
    35 OT DIIS     0.80E-01    3.4     0.00007672     -1636.6986081866 -2.27E-04
    36 OT DIIS     0.80E-01    3.3     0.00007689     -1636.6987321928 -1.24E-04
    37 OT DIIS     0.80E-01    3.3     0.00007513     -1636.6988964866 -1.64E-04
    38 OT DIIS     0.80E-01    3.3     0.00007041     -1636.6989953094 -9.88E-05
    39 OT DIIS     0.80E-01    3.2     0.00006517     -1636.6991624453 -1.67E-04
    40 OT DIIS     0.80E-01    3.2     0.00006591     -1636.6992887796 -1.26E-04
    41 OT DIIS     0.80E-01    3.2     0.00006127     -1636.6993810894 -9.23E-05
    42 OT DIIS     0.80E-01    3.3     0.00006234     -1636.6995605500 -1.79E-04
    43 OT DIIS     0.80E-01    3.3     0.00006012     -1636.6997299822 -1.69E-04
    44 OT DIIS     0.80E-01    3.2     0.00006225     -1636.6998623885 -1.32E-04
    45 OT DIIS     0.80E-01    3.2     0.00006410     -1636.7000472750 -1.85E-04
    46 OT DIIS     0.80E-01    3.2     0.00006465     -1636.7001814117 -1.34E-04
    47 OT DIIS     0.80E-01    3.4     0.00006224     -1636.7002948126 -1.13E-04
    48 OT DIIS     0.80E-01    3.2     0.00006319     -1636.7004180443 -1.23E-04
    49 OT DIIS     0.80E-01    3.1     0.00005812     -1636.7004705359 -5.25E-05
    50 OT DIIS     0.80E-01    3.4     0.00005649     -1636.7005888485 -1.18E-04
    51 OT DIIS     0.80E-01    3.2     0.00005229     -1636.7006863736 -9.75E-05
    52 OT DIIS     0.80E-01    3.2     0.00005180     -1636.7007694736 -8.31E-05
    53 OT DIIS     0.80E-01    3.2     0.00005117     -1636.7008915464 -1.22E-04
    54 OT DIIS     0.80E-01    3.2     0.00005224     -1636.7010167174 -1.25E-04
    55 OT DIIS     0.80E-01    3.3     0.00005228     -1636.7011105502 -9.38E-05
    56 OT DIIS     0.80E-01    3.3     0.00005383     -1636.7012512888 -1.41E-04
    57 OT DIIS     0.80E-01    3.2     0.00005395     -1636.7013383281 -8.70E-05
    58 OT DIIS     0.80E-01    3.2     0.00005362     -1636.7014619350 -1.24E-04
    59 OT DIIS     0.80E-01    3.3     0.00005060     -1636.7015365779 -7.46E-05
    60 OT DIIS     0.80E-01    3.2     0.00005009     -1636.7016046894 -6.81E-05
    61 OT DIIS     0.80E-01    3.2     0.00004790     -1636.7016902952 -8.56E-05
    62 OT DIIS     0.80E-01    3.2     0.00004735     -1636.7017833430 -9.30E-05
    63 OT DIIS     0.80E-01    3.2     0.00004622     -1636.7018344433 -5.11E-05
    64 OT DIIS     0.80E-01    3.2     0.00004582     -1636.7019358996 -1.01E-04
    65 OT DIIS     0.80E-01    3.3     0.00004617     -1636.7020194661 -8.36E-05
    66 OT DIIS     0.80E-01    3.2     0.00004622     -1636.7021380935 -1.19E-04
    67 OT DIIS     0.80E-01    3.3     0.00004602     -1636.7022134872 -7.54E-05
    68 OT DIIS     0.80E-01    3.3     0.00004668     -1636.7023254407 -1.12E-04
    69 OT DIIS     0.80E-01    3.2     0.00004609     -1636.7024115031 -8.61E-05
    70 OT DIIS     0.80E-01    3.2     0.00004619     -1636.7025134350 -1.02E-04
    71 OT DIIS     0.80E-01    3.3     0.00004544     -1636.7025441382 -3.07E-05
    72 OT DIIS     0.80E-01    3.3     0.00004410     -1636.7026202638 -7.61E-05
    73 OT DIIS     0.80E-01    3.4     0.00004342     -1636.7026896558 -6.94E-05
    74 OT DIIS     0.80E-01    3.2     0.00004264     -1636.7027728031 -8.31E-05
    75 OT DIIS     0.80E-01    3.1     0.00004208     -1636.7028244572 -5.17E-05
    76 OT DIIS     0.80E-01    3.1     0.00004211     -1636.7029295472 -1.05E-04
    77 OT DIIS     0.80E-01    3.1     0.00004232     -1636.7030127929 -8.32E-05
    78 OT DIIS     0.80E-01    3.1     0.00004292     -1636.7031261253 -1.13E-04
    79 OT DIIS     0.80E-01    3.0     0.00004377     -1636.7031927132 -6.66E-05
    80 OT DIIS     0.80E-01    3.1     0.00004352     -1636.7032758618 -8.31E-05
    81 OT DIIS     0.80E-01    3.1     0.00004353     -1636.7033620946 -8.62E-05
    82 OT DIIS     0.80E-01    3.3     0.00004258     -1636.7034358587 -7.38E-05
    83 OT DIIS     0.80E-01    3.4     0.00004159     -1636.7034656959 -2.98E-05
    84 OT DIIS     0.80E-01    3.5     0.00004070     -1636.7035503413 -8.46E-05
    85 OT DIIS     0.80E-01    3.4     0.00004016     -1636.7036032346 -5.29E-05
    86 OT DIIS     0.80E-01    3.4     0.00003977     -1636.7036821073 -7.89E-05
    87 OT DIIS     0.80E-01    3.5     0.00004012     -1636.7037468390 -6.47E-05
    88 OT DIIS     0.80E-01    3.4     0.00004009     -1636.7038181917 -7.14E-05
    89 OT DIIS     0.80E-01    3.3     0.00004056     -1636.7039105196 -9.23E-05
    90 OT DIIS     0.80E-01    3.2     0.00004051     -1636.7039974051 -8.69E-05
    91 OT DIIS     0.80E-01    3.1     0.00004102     -1636.7040491972 -5.18E-05
    92 OT DIIS     0.80E-01    3.2     0.00004035     -1636.7041488080 -9.96E-05
    93 OT DIIS     0.80E-01    3.3     0.00004037     -1636.7042005210 -5.17E-05
    94 OT DIIS     0.80E-01    3.4     0.00003947     -1636.7042586139 -5.81E-05
    95 OT DIIS     0.80E-01    3.2     0.00003927     -1636.7043165363 -5.79E-05
    96 OT DIIS     0.80E-01    3.3     0.00003857     -1636.7043615278 -4.50E-05
    97 OT DIIS     0.80E-01    3.3     0.00003809     -1636.7044275701 -6.60E-05
    98 OT DIIS     0.80E-01    3.2     0.00003768     -1636.7044900275 -6.25E-05
    99 OT DIIS     0.80E-01    3.1     0.00003796     -1636.7045423038 -5.23E-05
   100 OT DIIS     0.80E-01    3.2     0.00003757     -1636.7046320750 -8.98E-05
   101 OT DIIS     0.80E-01    3.1     0.00003829     -1636.7047005994 -6.85E-05
   102 OT DIIS     0.80E-01    3.2     0.00003810     -1636.7047611892 -6.06E-05
   103 OT DIIS     0.80E-01    3.1     0.00003856     -1636.7048401298 -7.89E-05
   104 OT DIIS     0.80E-01    3.3     0.00003835     -1636.7048869574 -4.68E-05
   105 OT DIIS     0.80E-01    3.3     0.00003781     -1636.7049458217 -5.89E-05
   106 OT DIIS     0.80E-01    3.2     0.00003697     -1636.7049895201 -4.37E-05
   107 OT DIIS     0.80E-01    3.1     0.00003669     -1636.7050348098 -4.53E-05
   108 OT DIIS     0.80E-01    3.3     0.00003583     -1636.7050959872 -6.12E-05
   109 OT DIIS     0.80E-01    3.2     0.00003597     -1636.7051535523 -5.76E-05
   110 OT DIIS     0.80E-01    3.2     0.00003567     -1636.7051989010 -4.53E-05
   111 OT DIIS     0.80E-01    3.4     0.00003595     -1636.7052761738 -7.73E-05
   112 OT DIIS     0.80E-01    3.3     0.00003617     -1636.7053370870 -6.09E-05
   113 OT DIIS     0.80E-01    3.2     0.00003631     -1636.7053990894 -6.20E-05
   114 OT DIIS     0.80E-01    3.3     0.00003604     -1636.7054510252 -5.19E-05
   115 OT DIIS     0.80E-01    3.3     0.00003622     -1636.7055119628 -6.09E-05
   116 OT DIIS     0.80E-01    3.5     0.00003533     -1636.7055611865 -4.92E-05
   117 OT DIIS     0.80E-01    3.4     0.00003535     -1636.7056162473 -5.51E-05
   118 OT DIIS     0.80E-01    3.2     0.00003477     -1636.7056434220 -2.72E-05
   119 OT DIIS     0.80E-01    3.1     0.00003458     -1636.7057041645 -6.07E-05
   120 OT DIIS     0.80E-01    3.5     0.00003444     -1636.7057565793 -5.24E-05
   121 OT DIIS     0.80E-01    3.2     0.00003441     -1636.7058064039 -4.98E-05
   122 OT DIIS     0.80E-01    3.3     0.00003430     -1636.7058587260 -5.23E-05
   123 OT DIIS     0.80E-01    3.2     0.00003459     -1636.7059315604 -7.28E-05
   124 OT DIIS     0.80E-01    3.2     0.00003431     -1636.7059840607 -5.25E-05
   125 OT DIIS     0.80E-01    3.1     0.00003466     -1636.7060567459 -7.27E-05
   126 OT DIIS     0.80E-01    3.2     0.00003446     -1636.7060899533 -3.32E-05
   127 OT DIIS     0.80E-01    3.2     0.00003441     -1636.7061473646 -5.74E-05
   128 OT DIIS     0.80E-01    3.2     0.00003413     -1636.7062019613 -5.46E-05
   129 OT DIIS     0.80E-01    3.1     0.00003391     -1636.7062377345 -3.58E-05
   130 OT DIIS     0.80E-01    3.5     0.00003358     -1636.7062782809 -4.05E-05
   131 OT DIIS     0.80E-01    3.1     0.00003352     -1636.7063407659 -6.25E-05
   132 OT DIIS     0.80E-01    3.1     0.00003325     -1636.7063812587 -4.05E-05
   133 OT DIIS     0.80E-01    3.2     0.00003344     -1636.7064507460 -6.95E-05
   134 OT DIIS     0.80E-01    3.1     0.00003351     -1636.7064987757 -4.80E-05
   135 OT DIIS     0.80E-01    3.1     0.00003376     -1636.7065577916 -5.90E-05
   136 OT DIIS     0.80E-01    3.3     0.00003370     -1636.7066282155 -7.04E-05
   137 OT DIIS     0.80E-01    3.1     0.00003389     -1636.7066679063 -3.97E-05
   138 OT DIIS     0.80E-01    3.1     0.00003362     -1636.7067137130 -4.58E-05
   139 OT DIIS     0.80E-01    3.2     0.00003351     -1636.7067759039 -6.22E-05
   140 OT DIIS     0.80E-01    3.1     0.00003301     -1636.7068022564 -2.64E-05
   141 OT DIIS     0.80E-01    3.2     0.00003289     -1636.7068572871 -5.50E-05
   142 OT DIIS     0.80E-01    3.3     0.00003267     -1636.7068997470 -4.25E-05
   143 OT DIIS     0.80E-01    3.3     0.00003269     -1636.7069408922 -4.11E-05
   144 OT DIIS     0.80E-01    3.3     0.00003251     -1636.7070023892 -6.15E-05
   145 OT DIIS     0.80E-01    3.3     0.00003272     -1636.7070426187 -4.02E-05
   146 OT DIIS     0.80E-01    3.1     0.00003267     -1636.7070993345 -5.67E-05
   147 OT DIIS     0.80E-01    3.2     0.00003287     -1636.7071651720 -6.58E-05
   148 OT DIIS     0.80E-01    3.2     0.00003272     -1636.7072019467 -3.68E-05
   149 OT DIIS     0.80E-01    3.2     0.00003278     -1636.7072577956 -5.58E-05
   150 OT DIIS     0.80E-01    3.2     0.00003260     -1636.7073128857 -5.51E-05
   151 OT DIIS     0.80E-01    3.2     0.00003272     -1636.7073441867 -3.13E-05
   152 OT DIIS     0.80E-01    3.2     0.00003226     -1636.7073975401 -5.34E-05
   153 OT DIIS     0.80E-01    3.1     0.00003225     -1636.7074299718 -3.24E-05
   154 OT DIIS     0.80E-01    3.0     0.00003198     -1636.7074797427 -4.98E-05
   155 OT DIIS     0.80E-01    3.1     0.00003203     -1636.7075325063 -5.28E-05
   156 OT DIIS     0.80E-01    3.1     0.00003190     -1636.7075716989 -3.92E-05
   157 OT DIIS     0.80E-01    3.2     0.00003205     -1636.7076220625 -5.04E-05
   158 OT DIIS     0.80E-01    3.3     0.00003202     -1636.7076891405 -6.71E-05
   159 OT DIIS     0.80E-01    3.1     0.00003256     -1636.7077250585 -3.59E-05
   160 OT DIIS     0.80E-01    3.1     0.00003219     -1636.7077778668 -5.28E-05
   161 OT DIIS     0.80E-01    3.2     0.00003233     -1636.7078112528 -3.34E-05
   162 OT DIIS     0.80E-01    3.2     0.00003190     -1636.7078622974 -5.10E-05
   163 OT DIIS     0.80E-01    3.2     0.00003182     -1636.7079031756 -4.09E-05
   164 OT DIIS     0.80E-01    3.2     0.00003138     -1636.7079389426 -3.58E-05
   165 OT DIIS     0.80E-01    3.2     0.00003131     -1636.7079737029 -3.48E-05
   166 OT DIIS     0.80E-01    3.3     0.00003103     -1636.7080350032 -6.13E-05
   167 OT DIIS     0.80E-01    3.3     0.00003162     -1636.7080719160 -3.69E-05
   168 OT DIIS     0.80E-01    3.3     0.00003143     -1636.7081208332 -4.89E-05
   169 OT DIIS     0.80E-01    3.2     0.00003194     -1636.7081615726 -4.07E-05
   170 OT DIIS     0.80E-01    3.2     0.00003175     -1636.7082229989 -6.14E-05
   171 OT DIIS     0.80E-01    3.3     0.00003218     -1636.7082617724 -3.88E-05
   172 OT DIIS     0.80E-01    3.1     0.00003171     -1636.7083066519 -4.49E-05
   173 OT DIIS     0.80E-01    3.4     0.00003180     -1636.7083314043 -2.48E-05
   174 OT DIIS     0.80E-01    3.2     0.00003097     -1636.7083892620 -5.79E-05
   175 OT DIIS     0.80E-01    3.3     0.00003145     -1636.7084198687 -3.06E-05
   176 OT DIIS     0.80E-01    3.3     0.00003075     -1636.7084527501 -3.29E-05
   177 OT DIIS     0.80E-01    3.4     0.00003082     -1636.7084846997 -3.19E-05
   178 OT DIIS     0.80E-01    3.2     0.00003034     -1636.7085364778 -5.18E-05
   179 OT DIIS     0.80E-01    3.2     0.00003077     -1636.7085670688 -3.06E-05
   180 OT DIIS     0.80E-01    3.2     0.00003047     -1636.7086151574 -4.81E-05
   181 OT DIIS     0.80E-01    3.1     0.00003094     -1636.7086400783 -2.49E-05
   182 OT DIIS     0.80E-01    3.2     0.00003032     -1636.7086960495 -5.60E-05
   183 OT DIIS     0.80E-01    3.2     0.00003127     -1636.7087315116 -3.55E-05
   184 OT DIIS     0.80E-01    3.2     0.00003056     -1636.7087572954 -2.58E-05
   185 OT DIIS     0.80E-01    3.1     0.00003058     -1636.7087850945 -2.78E-05
   186 OT DIIS     0.80E-01    3.2     0.00002956     -1636.7088304216 -4.53E-05
   187 OT DIIS     0.80E-01    3.1     0.00002960     -1636.7088494524 -1.90E-05
   188 OT DIIS     0.80E-01    3.2     0.00002884     -1636.7088911083 -4.17E-05
   189 OT DIIS     0.80E-01    3.2     0.00002900     -1636.7089108645 -1.98E-05
   190 OT DIIS     0.80E-01    3.1     0.00002838     -1636.7089553436 -4.45E-05
   191 OT DIIS     0.80E-01    3.1     0.00002929     -1636.7089931295 -3.78E-05
   192 OT DIIS     0.80E-01    3.1     0.00002908     -1636.7090179537 -2.48E-05
   193 OT DIIS     0.80E-01    3.1     0.00002967     -1636.7090479560 -3.00E-05
   194 OT DIIS     0.80E-01    3.1     0.00002874     -1636.7090932899 -4.53E-05
   195 OT DIIS     0.80E-01    3.1     0.00002922     -1636.7091072642 -1.40E-05
   196 OT DIIS     0.80E-01    3.1     0.00002818     -1636.7091472465 -4.00E-05
   197 OT DIIS     0.80E-01    3.0     0.00002817     -1636.7091622446 -1.50E-05
   198 OT DIIS     0.80E-01    3.1     0.00002710     -1636.7091946386 -3.24E-05
   199 OT DIIS     0.80E-01    3.1     0.00002737     -1636.7092272630 -3.26E-05
   200 OT DIIS     0.80E-01    3.1     0.00002699     -1636.7092459996 -1.87E-05

  Leaving inner SCF loop after reaching   200 steps.


  Electronic density on regular grids:       -896.0000000017       -0.0000000017
  Core density on regular grids:              895.9999999251       -0.0000000749
  Total charge density on r-space grids:       -0.0000000766
  Total charge density g-space grids:          -0.0000000766

  Overlap energy of the core charge distribution:               0.00004084601582
  Self energy of the core charge distribution:              -3531.67332257831958
  Core Hamiltonian energy:                                   1016.09235382731049
  Hartree energy:                                            1268.89956979056365
  Exchange-correlation energy:                               -389.19589100917835
  Dispersion energy:                                           -0.83199687600671

  Total energy:                                             -1636.70924599961450

  outer SCF iter =    1 RMS gradient =   0.27E-04 energy =      -1636.7092459996

  ----------------------------------- OT ---------------------------------------
  Minimizer      : DIIS                : direct inversion
                                         in the iterative subspace
                                         using   7 DIIS vectors
                                         safer DIIS on
  Preconditioner : FULL_SINGLE_INVERSE : inversion of 
                                         H + eS - 2*(Sc)(c^T*H*c+const)(Sc)^T
  Precond_solver : DEFAULT
  stepsize       :    0.08000000                  energy_gap     :    0.08000000
  eps_taylor     :   0.10000E-15                  max_taylor     :             4
  ----------------------------------- OT ---------------------------------------

  Step     Update method      Time    Convergence         Total energy    Change
  ------------------------------------------------------------------------------
     1 OT DIIS     0.80E-01    8.5     0.00002703     -1636.7092722931 -2.63E-05
     2 OT DIIS     0.80E-01    3.1     0.00004456     -1636.7093154165 -4.31E-05
     3 OT DIIS     0.80E-01    3.1     0.00002395     -1636.7093446903 -2.93E-05
     4 OT DIIS     0.80E-01    3.1     0.00002533     -1636.7094198481 -7.52E-05
     5 OT DIIS     0.80E-01    3.2     0.00002219     -1636.7097902284 -3.70E-04
     6 OT DIIS     0.80E-01    3.1     0.00001994     -1636.7099912513 -2.01E-04
     7 OT DIIS     0.80E-01    3.1     0.00002025     -1636.7103022466 -3.11E-04
     8 OT DIIS     0.80E-01    3.2     0.00001490     -1636.7104248193 -1.23E-04
     9 OT DIIS     0.80E-01    3.2     0.00001468     -1636.7105051919 -8.04E-05
    10 OT DIIS     0.80E-01    3.2     0.00001334     -1636.7105577848 -5.26E-05
    11 OT DIIS     0.80E-01    3.1     0.00001369     -1636.7105989149 -4.11E-05
    12 OT DIIS     0.80E-01    3.1     0.00001313     -1636.7106421486 -4.32E-05
    13 OT DIIS     0.80E-01    3.2     0.00001236     -1636.7106747719 -3.26E-05
    14 OT DIIS     0.80E-01    3.2     0.00001197     -1636.7107047766 -3.00E-05
    15 OT DIIS     0.80E-01    3.2     0.00001161     -1636.7107482435 -4.35E-05
    16 OT DIIS     0.80E-01    3.2     0.00001135     -1636.7107793070 -3.11E-05
    17 OT DIIS     0.80E-01    3.2     0.00001111     -1636.7108397649 -6.05E-05
    18 OT DIIS     0.80E-01    3.2     0.00001087     -1636.7108828378 -4.31E-05
    19 OT DIIS     0.80E-01    3.2     0.00001092     -1636.7109273211 -4.45E-05
    20 OT DIIS     0.80E-01    3.2     0.00001064     -1636.7109618102 -3.45E-05
    21 OT DIIS     0.80E-01    3.2     0.00001036     -1636.7109877673 -2.60E-05
    22 OT DIIS     0.80E-01    3.2     0.00001019     -1636.7110187939 -3.10E-05
    23 OT DIIS     0.80E-01    3.2     0.00001016     -1636.7110575555 -3.88E-05
    24 OT DIIS     0.80E-01    3.2     0.00000978     -1636.7110845689 -2.70E-05

  *** SCF run converged in    24 steps ***


  Electronic density on regular grids:       -896.0000000139       -0.0000000139
  Core density on regular grids:              895.9999999251       -0.0000000749
  Total charge density on r-space grids:       -0.0000000888
  Total charge density g-space grids:          -0.0000000888

  Overlap energy of the core charge distribution:               0.00004084601582
  Self energy of the core charge distribution:              -3531.67332257831958
  Core Hamiltonian energy:                                   1016.09743225061152
  Hartree energy:                                            1268.89420355603465
  Exchange-correlation energy:                               -389.19744176719433
  Dispersion energy:                                           -0.83199687600671

  Total energy:                                             -1636.71108456885827

  outer SCF iter =    2 RMS gradient =   0.98E-05 energy =      -1636.7110845689
  outer SCF loop converged in   2 iterations or  224 steps


 ENERGY| Total FORCE_EVAL ( QS ) energy [a.u.]:            -1636.711127034475339

 --------  Informations at step =     5 ------------
  Optimization Method        =                 BFGS
  Total Energy               =     -1636.7111270345
  Real energy change         =         0.0154223098
  Predicted change in energy =        -0.0734709294
  Scaling factor             =         0.8765483177
  Step size                  =         0.3964501512
  Trust radius               =         0.4724315332
  Decrease in energy         =                   NO
  Used time                  =              733.815

  Convergence check :
  Max. step size             =         0.3964501512
  Conv. limit for step size  =         0.0030000000
  Convergence in step size   =                   NO
  RMS step size              =         0.0361798136
  Conv. limit for RMS step   =         0.0015000000
  Convergence in RMS step    =                   NO
  Max. gradient              =         0.1156847360
  Conv. limit for gradients  =         0.0004500000
  Conv. for gradients        =                   NO
  RMS gradient               =         0.0073440010
  Conv. limit for RMS grad.  =         0.0003000000
  Conv. for gradients        =                   NO
 ---------------------------------------------------

 --------------------------
 OPTIMIZATION STEP:      6
 --------------------------

  Step is scaled; Scaling factor =  0.48341

 Number of electrons:                                                        896
 Number of occupied orbitals:                                                448
 Number of molecular orbitals:                                               448

 Number of orbital functions:                                               2720
 Number of independent orbital functions:                                   2720

 Extrapolation method: ASPC


 SCF WAVEFUNCTION OPTIMIZATION

  ----------------------------------- OT ---------------------------------------
  Minimizer      : DIIS                : direct inversion
                                         in the iterative subspace
                                         using   7 DIIS vectors
                                         safer DIIS on
  Preconditioner : FULL_SINGLE_INVERSE : inversion of 
                                         H + eS - 2*(Sc)(c^T*H*c+const)(Sc)^T
  Precond_solver : DEFAULT
  stepsize       :    0.08000000                  energy_gap     :    0.08000000
  eps_taylor     :   0.10000E-15                  max_taylor     :             4
  ----------------------------------- OT ---------------------------------------

  Step     Update method      Time    Convergence         Total energy    Change
  ------------------------------------------------------------------------------
     1 OT DIIS     0.80E-01    4.5     0.00193903     -1636.2575077213 -1.64E+03
     2 OT DIIS     0.80E-01    3.2     0.00175400     -1636.4432620369 -1.86E-01
     3 OT DIIS     0.80E-01    3.1     0.00143305     -1636.5040052280 -6.07E-02
     4 OT DIIS     0.80E-01    3.2     0.00127354     -1636.5577348239 -5.37E-02
     5 OT DIIS     0.80E-01    3.2     0.00146735     -1636.5786916579 -2.10E-02
     6 OT DIIS     0.80E-01    3.2     0.00045664     -1636.6108222542 -3.21E-02
     7 OT DIIS     0.80E-01    3.2     0.00028094     -1636.6230999932 -1.23E-02
     8 OT DIIS     0.80E-01    3.2     0.00036585     -1636.6264140360 -3.31E-03
     9 OT DIIS     0.80E-01    3.2     0.00030216     -1636.6279434036 -1.53E-03
    10 OT DIIS     0.80E-01    3.2     0.00016881     -1636.6297741884 -1.83E-03
    11 OT DIIS     0.80E-01    3.2     0.00013310     -1636.6310473437 -1.27E-03
    12 OT DIIS     0.80E-01    3.1     0.00012969     -1636.6321136848 -1.07E-03
    13 OT DIIS     0.80E-01    3.1     0.00012839     -1636.6329567705 -8.43E-04
    14 OT DIIS     0.80E-01    3.1     0.00011042     -1636.6338915437 -9.35E-04
    15 OT DIIS     0.80E-01    3.2     0.00009828     -1636.6353804072 -1.49E-03
    16 OT DIIS     0.80E-01    3.2     0.00010100     -1636.6367077464 -1.33E-03
    17 OT DIIS     0.80E-01    3.1     0.00010020     -1636.6376664059 -9.59E-04
    18 OT DIIS     0.80E-01    3.2     0.00008941     -1636.6385793137 -9.13E-04
    19 OT DIIS     0.80E-01    3.2     0.00008416     -1636.6397439302 -1.16E-03
    20 OT DIIS     0.80E-01    3.1     0.00009019     -1636.6409249408 -1.18E-03
    21 OT DIIS     0.80E-01    3.2     0.00008184     -1636.6422045745 -1.28E-03
    22 OT DIIS     0.80E-01    3.2     0.00008679     -1636.6436125487 -1.41E-03
    23 OT DIIS     0.80E-01    3.2     0.00007688     -1636.6449870150 -1.37E-03
    24 OT DIIS     0.80E-01    3.1     0.00007306     -1636.6465840303 -1.60E-03
    25 OT DIIS     0.80E-01    3.2     0.00006553     -1636.6479764630 -1.39E-03
    26 OT DIIS     0.80E-01    3.2     0.00006978     -1636.6486260079 -6.50E-04
    27 OT DIIS     0.80E-01    3.3     0.00005388     -1636.6490563007 -4.30E-04
    28 OT DIIS     0.80E-01    3.3     0.00005091     -1636.6494644041 -4.08E-04
    29 OT DIIS     0.80E-01    3.2     0.00005296     -1636.6498397320 -3.75E-04
    30 OT DIIS     0.80E-01    3.1     0.00005412     -1636.6500586142 -2.19E-04
    31 OT DIIS     0.80E-01    3.1     0.00003938     -1636.6502828706 -2.24E-04
    32 OT DIIS     0.80E-01    3.2     0.00003509     -1636.6504272473 -1.44E-04
    33 OT DIIS     0.80E-01    3.2     0.00003507     -1636.6505346316 -1.07E-04
    34 OT DIIS     0.80E-01    3.2     0.00003525     -1636.6506408841 -1.06E-04
    35 OT DIIS     0.80E-01    3.2     0.00003467     -1636.6507852708 -1.44E-04
    36 OT DIIS     0.80E-01    3.1     0.00003187     -1636.6509507136 -1.65E-04
    37 OT DIIS     0.80E-01    3.2     0.00003132     -1636.6511050197 -1.54E-04
    38 OT DIIS     0.80E-01    3.2     0.00003029     -1636.6512037670 -9.87E-05
    39 OT DIIS     0.80E-01    3.2     0.00003217     -1636.6512791035 -7.53E-05
    40 OT DIIS     0.80E-01    3.2     0.00003061     -1636.6513386584 -5.96E-05
    41 OT DIIS     0.80E-01    3.2     0.00002939     -1636.6514674579 -1.29E-04
    42 OT DIIS     0.80E-01    3.1     0.00002994     -1636.6515972927 -1.30E-04
    43 OT DIIS     0.80E-01    3.2     0.00002917     -1636.6517356787 -1.38E-04
    44 OT DIIS     0.80E-01    3.3     0.00002960     -1636.6518059461 -7.03E-05
    45 OT DIIS     0.80E-01    3.2     0.00002886     -1636.6518658836 -5.99E-05
    46 OT DIIS     0.80E-01    3.2     0.00002877     -1636.6519166713 -5.08E-05
    47 OT DIIS     0.80E-01    3.2     0.00002871     -1636.6520579447 -1.41E-04
    48 OT SD       0.80E-01    3.2     0.00002892     -1636.6521282348 -7.03E-05
    49 OT DIIS     0.80E-01    3.1     0.00006358     -1636.6521740345 -4.58E-05
    50 OT SD       0.80E-01    3.2     0.00002855     -1636.6524983462 -3.24E-04
    51 OT DIIS     0.80E-01    3.2     0.00006156     -1636.6525424972 -4.42E-05
    52 OT DIIS     0.80E-01    3.2     0.00002691     -1636.6528983227 -3.56E-04
    53 OT DIIS     0.80E-01    3.2     0.00002788     -1636.6529260250 -2.77E-05
    54 OT DIIS     0.80E-01    3.1     0.00002579     -1636.6532527649 -3.27E-04
    55 OT DIIS     0.80E-01    3.2     0.00002733     -1636.6535329866 -2.80E-04
    56 OT DIIS     0.80E-01    3.2     0.00002540     -1636.6537664333 -2.33E-04
    57 OT DIIS     0.80E-01    3.2     0.00002936     -1636.6538961928 -1.30E-04
    58 OT DIIS     0.80E-01    3.2     0.00002468     -1636.6543988878 -5.03E-04
    59 OT DIIS     0.80E-01    3.2     0.00002656     -1636.6545756966 -1.77E-04
    60 OT DIIS     0.80E-01    3.2     0.00002610     -1636.6549021502 -3.26E-04
    61 OT DIIS     0.80E-01    3.2     0.00002793     -1636.6550247354 -1.23E-04
    62 OT DIIS     0.80E-01    3.2     0.00002493     -1636.6554179035 -3.93E-04
    63 OT DIIS     0.80E-01    3.2     0.00002504     -1636.6556534857 -2.36E-04
    64 OT SD       0.80E-01    3.2     0.00002579     -1636.6558914862 -2.38E-04
    65 OT SD       0.80E-01    3.3     0.00004091     -1636.6559439472 -5.25E-05
    66 OT SD       0.80E-01    3.2     0.00016649     -1636.6557996976  1.44E-04
    67 OT DIIS     0.80E-01    3.2     0.00084887     -1636.6503961184  5.40E-03
    68 OT SD       0.80E-01    3.2     0.00002872     -1636.6554016090 -5.01E-03
    69 OT DIIS     0.80E-01    3.2     0.00010233     -1636.6553742215  2.74E-05
    70 OT SD       0.80E-01    3.2     0.00002429     -1636.6552949286  7.93E-05
    71 OT SD       0.80E-01    3.2     0.00005081     -1636.6553239646 -2.90E-05
    72 OT DIIS     0.80E-01    3.2     0.00023253     -1636.6549630207  3.61E-04
    73 OT DIIS     0.80E-01    3.2     0.00002329     -1636.6551683204 -2.05E-04
    74 OT DIIS     0.80E-01    3.2     0.00002183     -1636.6553940855 -2.26E-04
    75 OT DIIS     0.80E-01    3.2     0.00002605     -1636.6557668414 -3.73E-04
    76 OT SD       0.80E-01    3.2     0.00002566     -1636.6559259159 -1.59E-04
    77 OT SD       0.80E-01    3.2     0.00003183     -1636.6559838959 -5.80E-05
    78 OT SD       0.80E-01    3.2     0.00008913     -1636.6559915629 -7.67E-06
    79 OT DIIS     0.80E-01    3.2     0.00043207     -1636.6546533365  1.34E-03
    80 OT SD       0.80E-01    3.2     0.00002444     -1636.6557482211 -1.09E-03
    81 OT SD       0.80E-01    3.3     0.00004523     -1636.6557870515 -3.88E-05
    82 OT DIIS     0.80E-01    3.2     0.00019622     -1636.6555516247  2.35E-04
    83 OT DIIS     0.80E-01    3.1     0.00002344     -1636.6554459958  1.06E-04
    84 OT DIIS     0.80E-01    3.2     0.00002280     -1636.6554788212 -3.28E-05
    85 OT SD       0.80E-01    3.2     0.00002355     -1636.6555380973 -5.93E-05
    86 OT SD       0.80E-01    3.2     0.00003542     -1636.6555739846 -3.59E-05
    87 OT DIIS     0.80E-01    3.2     0.00011338     -1636.6555122617  6.17E-05
    88 OT DIIS     0.80E-01    3.1     0.00002579     -1636.6554713894  4.09E-05
    89 OT DIIS     0.80E-01    3.2     0.00002268     -1636.6556550679 -1.84E-04
    90 OT SD       0.80E-01    3.2     0.00002222     -1636.6557862410 -1.31E-04
    91 OT SD       0.80E-01    3.2     0.00003852     -1636.6558224107 -3.62E-05
    92 OT DIIS     0.80E-01    3.2     0.00016564     -1636.6556645479  1.58E-04
    93 OT SD       0.80E-01    3.2     0.00002372     -1636.6558019622 -1.37E-04
    94 OT DIIS     0.80E-01    3.2     0.00005438     -1636.6558278073 -2.58E-05
    95 OT SD       0.80E-01    3.2     0.00002558     -1636.6558095854  1.82E-05
    96 OT DIIS     0.80E-01    3.2     0.00007238     -1636.6558214780 -1.19E-05
    97 OT DIIS     0.80E-01    3.2     0.00002295     -1636.6558263154 -4.84E-06
    98 OT DIIS     0.80E-01    3.2     0.00002978     -1636.6558224790  3.84E-06
    99 OT SD       0.80E-01    3.2     0.00002465     -1636.6558266831 -4.20E-06
   100 OT DIIS     0.80E-01    3.2     0.00005962     -1636.6558382123 -1.15E-05
   101 OT SD       0.80E-01    3.2     0.00003222     -1636.6558558113 -1.76E-05
   102 OT DIIS     0.80E-01    3.2     0.00011583     -1636.6557961509  5.97E-05
   103 OT DIIS     0.80E-01    3.3     0.00002118     -1636.6558785955 -8.24E-05
   104 OT DIIS     0.80E-01    3.2     0.00002983     -1636.6558796725 -1.08E-06
   105 OT DIIS     0.80E-01    3.2     0.00002105     -1636.6558802963 -6.24E-07
   106 OT DIIS     0.80E-01    3.2     0.00002111     -1636.6558910360 -1.07E-05
   107 OT DIIS     0.80E-01    3.2     0.00002048     -1636.6559168401 -2.58E-05
   108 OT DIIS     0.80E-01    3.2     0.00002094     -1636.6559238500 -7.01E-06
   109 OT DIIS     0.80E-01    3.2     0.00002004     -1636.6559266699 -2.82E-06
   110 OT DIIS     0.80E-01    3.2     0.00002280     -1636.6559561464 -2.95E-05
   111 OT SD       0.80E-01    3.2     0.00002217     -1636.6559644893 -8.34E-06
   112 OT SD       0.80E-01    3.2     0.00004045     -1636.6559945049 -3.00E-05
   113 OT DIIS     0.80E-01    3.2     0.00017146     -1636.6558082883  1.86E-04
   114 OT DIIS     0.80E-01    3.2     0.00003265     -1636.6559029205 -9.46E-05
   115 OT DIIS     0.80E-01    3.2     0.00002130     -1636.6559807023 -7.78E-05
   116 OT DIIS     0.80E-01    3.2     0.00002082     -1636.6559820945 -1.39E-06
   117 OT DIIS     0.80E-01    3.2     0.00002256     -1636.6560245194 -4.24E-05
   118 OT DIIS     0.80E-01    3.2     0.00002205     -1636.6560423627 -1.78E-05
   119 OT DIIS     0.80E-01    3.2     0.00001968     -1636.6560470499 -4.69E-06
   120 OT SD       0.80E-01    3.2     0.00001990     -1636.6560685291 -2.15E-05
   121 OT SD       0.80E-01    3.2     0.00002680     -1636.6561040170 -3.55E-05
   122 OT SD       0.80E-01    3.2     0.00009998     -1636.6560735215  3.05E-05
   123 OT DIIS     0.80E-01    3.1     0.00053785     -1636.6540197715  2.05E-03
   124 OT SD       0.80E-01    3.2     0.00002462     -1636.6556135110 -1.59E-03
   125 OT DIIS     0.80E-01    3.2     0.00005619     -1636.6556364462 -2.29E-05
   126 OT DIIS     0.80E-01    3.2     0.00002408     -1636.6557294816 -9.30E-05
   127 OT DIIS     0.80E-01    3.2     0.00002099     -1636.6557858973 -5.64E-05
   128 OT SD       0.80E-01    3.3     0.00003240     -1636.6566309831 -8.45E-04
   129 OT SD       0.80E-01    3.2     0.00007993     -1636.6566655000 -3.45E-05
   130 OT DIIS     0.80E-01    3.1     0.00040083     -1636.6555612496  1.10E-03
   131 OT DIIS     0.80E-01    3.2     0.00002832     -1636.6550267911  5.34E-04
   132 OT DIIS     0.80E-01    3.2     0.00002823     -1636.6550687356 -4.19E-05
   133 OT SD       0.80E-01    3.2     0.00002950     -1636.6551365262 -6.78E-05
   134 OT SD       0.80E-01    3.2     0.00007654     -1636.6551510349 -1.45E-05
   135 OT DIIS     0.80E-01    3.2     0.00037764     -1636.6541304679  1.02E-03
   136 OT DIIS     0.80E-01    3.2     0.00003184     -1636.6547111537 -5.81E-04
   137 OT DIIS     0.80E-01    3.2     0.00002442     -1636.6551940237 -4.83E-04
   138 OT DIIS     0.80E-01    3.2     0.00002280     -1636.6552232769 -2.93E-05
   139 OT DIIS     0.80E-01    3.2     0.00002744     -1636.6552232548  2.22E-08
   140 OT DIIS     0.80E-01    3.2     0.00002175     -1636.6552209949  2.26E-06
   141 OT SD       0.80E-01    3.2     0.00002222     -1636.6552895010 -6.85E-05
   142 OT DIIS     0.80E-01    3.2     0.00003758     -1636.6553265125 -3.70E-05
   143 OT DIIS     0.80E-01    3.2     0.00002129     -1636.6554099465 -8.34E-05
   144 OT DIIS     0.80E-01    3.2     0.00002115     -1636.6554860252 -7.61E-05
   145 OT DIIS     0.80E-01    3.2     0.00002184     -1636.6555801673 -9.41E-05
   146 OT DIIS     0.80E-01    3.2     0.00002172     -1636.6557023880 -1.22E-04
   147 OT SD       0.80E-01    3.3     0.00002669     -1636.6559582101 -2.56E-04
   148 OT DIIS     0.80E-01    3.2     0.00008778     -1636.6559377151  2.05E-05
   149 OT SD       0.80E-01    3.2     0.00002257     -1636.6561368612 -1.99E-04
   150 OT SD       0.80E-01    3.2     0.00003814     -1636.6561740952 -3.72E-05
   151 OT SD       0.80E-01    3.2     0.00015404     -1636.6560418211  1.32E-04
   152 OT DIIS     0.80E-01    3.2     0.00077401     -1636.6515088111  4.53E-03
   153 OT SD       0.80E-01    3.2     0.00002576     -1636.6557243218 -4.22E-03
   154 OT SD       0.80E-01    3.2     0.00006939     -1636.6557243306 -8.83E-09
   155 OT DIIS     0.80E-01    3.2     0.00031320     -1636.6549877210  7.37E-04
   156 OT SD       0.80E-01    3.2     0.00002307     -1636.6554534669 -4.66E-04
   157 OT DIIS     0.80E-01    3.2     0.00005061     -1636.6554789650 -2.55E-05
   158 OT DIIS     0.80E-01    3.2     0.00002393     -1636.6559172328 -4.38E-04
   159 OT SD       0.80E-01    3.3     0.00002349     -1636.6562228618 -3.06E-04
   160 OT SD       0.80E-01    3.2     0.00002789     -1636.6562723514 -4.95E-05
   161 OT SD       0.80E-01    3.1     0.00006624     -1636.6562964368 -2.41E-05
   162 OT DIIS     0.80E-01    3.2     0.00031530     -1636.6556215239  6.75E-04
   163 OT SD       0.80E-01    3.2     0.00002793     -1636.6553664154  2.55E-04
   164 OT SD       0.80E-01    3.2     0.00008271     -1636.6553564586  9.96E-06
   165 OT DIIS     0.80E-01    3.2     0.00039467     -1636.6542003316  1.16E-03
   166 OT SD       0.80E-01    3.2     0.00002305     -1636.6550021689 -8.02E-04
   167 OT DIIS     0.80E-01    3.2     0.00004394     -1636.6550329489 -3.08E-05
   168 OT DIIS     0.80E-01    3.2     0.00002208     -1636.6552418922 -2.09E-04
   169 OT SD       0.80E-01    3.2     0.00002069     -1636.6554117344 -1.70E-04
   170 OT DIIS     0.80E-01    3.2     0.00002241     -1636.6554522706 -4.05E-05
   171 OT DIIS     0.80E-01    3.2     0.00002063     -1636.6554692427 -1.70E-05
   172 OT DIIS     0.80E-01    3.2     0.00002143     -1636.6554855805 -1.63E-05
   173 OT DIIS     0.80E-01    3.2     0.00002192     -1636.6555853131 -9.97E-05
   174 OT DIIS     0.80E-01    3.2     0.00001981     -1636.6557936549 -2.08E-04
   175 OT DIIS     0.80E-01    3.2     0.00002166     -1636.6559477646 -1.54E-04
   176 OT DIIS     0.80E-01    3.2     0.00002141     -1636.6561522167 -2.04E-04
   177 OT SD       0.80E-01    3.2     0.00002324     -1636.6563292820 -1.77E-04
   178 OT SD       0.80E-01    3.3     0.00002705     -1636.6563788112 -4.95E-05
   179 OT SD       0.80E-01    3.2     0.00006805     -1636.6563998572 -2.10E-05
   180 OT DIIS     0.80E-01    3.1     0.00032048     -1636.6556765272  7.23E-04
   181 OT SD       0.80E-01    3.1     0.00002294     -1636.6554594983  2.17E-04
   182 OT SD       0.80E-01    3.2     0.00004481     -1636.6554892799 -2.98E-05
   183 OT SD       0.80E-01    3.2     0.00020384     -1636.6552195795  2.70E-04
   184 OT DIIS     0.80E-01    3.2     0.00107692     -1636.6466818776  8.54E-03
   185 OT DIIS     0.80E-01    3.2     0.00003316     -1636.6542510835 -7.57E-03
   186 OT DIIS     0.80E-01    3.1     0.00002657     -1636.6546782009 -4.27E-04
   187 OT SD       0.80E-01    3.2     0.00002066     -1636.6555240357 -8.46E-04
   188 OT SD       0.80E-01    3.1     0.00002568     -1636.6555619182 -3.79E-05
   189 OT DIIS     0.80E-01    3.2     0.00008168     -1636.6555535666  8.35E-06
   190 OT DIIS     0.80E-01    3.2     0.00002021     -1636.6555913310 -3.78E-05
   191 OT DIIS     0.80E-01    3.2     0.00002072     -1636.6556984936 -1.07E-04
   192 OT DIIS     0.80E-01    3.1     0.00002085     -1636.6558925296 -1.94E-04
   193 OT DIIS     0.80E-01    3.2     0.00002292     -1636.6562237332 -3.31E-04
   194 OT SD       0.80E-01    3.2     0.00002445     -1636.6563722281 -1.48E-04
   195 OT SD       0.80E-01    3.2     0.00003443     -1636.6564206564 -4.84E-05
   196 OT SD       0.80E-01    3.2     0.00011694     -1636.6563751603  4.55E-05
   197 OT DIIS     0.80E-01    3.2     0.00058021     -1636.6538900882  2.49E-03
   198 OT DIIS     0.80E-01    3.2     0.00002417     -1636.6552831154 -1.39E-03
   199 OT SD       0.80E-01    3.1     0.00003339     -1636.6552767589  6.36E-06
   200 OT DIIS     0.80E-01    3.2     0.00012601     -1636.6552041536  7.26E-05

  Leaving inner SCF loop after reaching   200 steps.


  Electronic density on regular grids:       -896.0000011867       -0.0000011867
  Core density on regular grids:              895.9999999261       -0.0000000739
  Total charge density on r-space grids:       -0.0000012606
  Total charge density g-space grids:          -0.0000012606

  Overlap energy of the core charge distribution:               0.00005123469939
  Self energy of the core charge distribution:              -3531.67332257831958
  Core Hamiltonian energy:                                   1018.17168356264096
  Hartree energy:                                            1267.49900725582006
  Exchange-correlation energy:                               -389.82096622469936
  Dispersion energy:                                           -0.83165740378886

  Total energy:                                             -1636.65520415364722

  outer SCF iter =    1 RMS gradient =   0.13E-03 energy =      -1636.6552041536

  ----------------------------------- OT ---------------------------------------
  Minimizer      : DIIS                : direct inversion
                                         in the iterative subspace
                                         using   7 DIIS vectors
                                         safer DIIS on
  Preconditioner : FULL_SINGLE_INVERSE : inversion of 
                                         H + eS - 2*(Sc)(c^T*H*c+const)(Sc)^T
  Precond_solver : DEFAULT
  stepsize       :    0.08000000                  energy_gap     :    0.08000000
  eps_taylor     :   0.10000E-15                  max_taylor     :             4
  ----------------------------------- OT ---------------------------------------

  Step     Update method      Time    Convergence         Total energy    Change
  ------------------------------------------------------------------------------
     1 OT DIIS     0.80E-01    8.6     0.00002676     -1636.6554336457 -2.29E-04
     2 OT DIIS     0.80E-01    3.1     0.00004869     -1636.6554600106 -2.64E-05
     3 OT DIIS     0.80E-01    3.1     0.00002297     -1636.6554937047 -3.37E-05
     4 OT DIIS     0.80E-01    3.1     0.00002147     -1636.6555122017 -1.85E-05
     5 OT DIIS     0.80E-01    3.1     0.00002186     -1636.6555705477 -5.83E-05
     6 OT DIIS     0.80E-01    3.1     0.00002088     -1636.6556872569 -1.17E-04
     7 OT DIIS     0.80E-01    3.0     0.00002045     -1636.6558042448 -1.17E-04
     8 OT DIIS     0.80E-01    3.1     0.00002117     -1636.6559628511 -1.59E-04
     9 OT DIIS     0.80E-01    3.1     0.00001950     -1636.6560773666 -1.15E-04
    10 OT DIIS     0.80E-01    3.1     0.00002205     -1636.6563685619 -2.91E-04
    11 OT SD       0.80E-01    3.1     0.00002362     -1636.6565121248 -1.44E-04
    12 OT SD       0.80E-01    3.1     0.00003087     -1636.6565579387 -4.58E-05
    13 OT SD       0.80E-01    3.1     0.00007511     -1636.6565604983 -2.56E-06
    14 OT DIIS     0.80E-01    3.1     0.00025653     -1636.6559817528  5.79E-04
    15 OT SD       0.80E-01    3.1     0.00002130     -1636.6557958021  1.86E-04
    16 OT SD       0.80E-01    3.1     0.00002553     -1636.6558333116 -3.75E-05
    17 OT SD       0.80E-01    3.1     0.00005596     -1636.6558437521 -1.04E-05
    18 OT SD       0.80E-01    3.1     0.00018162     -1636.6555575385  2.86E-04
    19 OT DIIS     0.80E-01    3.1     0.00063785     -1636.6515952232  3.96E-03
    20 OT DIIS     0.80E-01    3.0     0.00002416     -1636.6553662712 -3.77E-03
    21 OT DIIS     0.80E-01    3.1     0.00001992     -1636.6560024098 -6.36E-04
    22 OT DIIS     0.80E-01    3.1     0.00002136     -1636.6562449984 -2.43E-04
    23 OT SD       0.80E-01    3.1     0.00002134     -1636.6564375865 -1.93E-04
    24 OT SD       0.80E-01    3.1     0.00002499     -1636.6564795645 -4.20E-05
    25 OT SD       0.80E-01    3.1     0.00004848     -1636.6565077070 -2.81E-05
    26 OT DIIS     0.80E-01    3.1     0.00015378     -1636.6563296952  1.78E-04
    27 OT SD       0.80E-01    3.1     0.00002051     -1636.6562406987  8.90E-05
    28 OT SD       0.80E-01    3.2     0.00003447     -1636.6562659297 -2.52E-05
    29 OT SD       0.80E-01    3.1     0.00010712     -1636.6561915759  7.44E-05
    30 OT DIIS     0.80E-01    3.1     0.00038896     -1636.6547756239  1.42E-03
    31 OT SD       0.80E-01    3.1     0.00002249     -1636.6559282610 -1.15E-03
    32 OT DIIS     0.80E-01    3.1     0.00002712     -1636.6559680085 -3.97E-05
    33 OT SD       0.80E-01    3.1     0.00002289     -1636.6565026844 -5.35E-04
    34 OT SD       0.80E-01    3.1     0.00002448     -1636.6565519832 -4.93E-05
    35 OT SD       0.80E-01    3.2     0.00003409     -1636.6565986447 -4.67E-05
    36 OT SD       0.80E-01    3.1     0.00008568     -1636.6565893933  9.25E-06
    37 OT DIIS     0.80E-01    3.1     0.00029234     -1636.6558248719  7.65E-04
    38 OT SD       0.80E-01    3.1     0.00002341     -1636.6560214631 -1.97E-04
    39 OT SD       0.80E-01    3.1     0.00003446     -1636.6560532127 -3.17E-05
    40 OT SD       0.80E-01    3.1     0.00009145     -1636.6560082797  4.49E-05
    41 OT DIIS     0.80E-01    3.2     0.00030592     -1636.6551197635  8.89E-04
    42 OT DIIS     0.80E-01    3.1     0.00002720     -1636.6553323530 -2.13E-04
    43 OT DIIS     0.80E-01    3.1     0.00002482     -1636.6555391683 -2.07E-04
    44 OT DIIS     0.80E-01    3.1     0.00001960     -1636.6561335219 -5.94E-04
    45 OT DIIS     0.80E-01    3.1     0.00001884     -1636.6563206286 -1.87E-04
    46 OT SD       0.80E-01    3.1     0.00002051     -1636.6564276507 -1.07E-04
    47 OT SD       0.80E-01    3.0     0.00002280     -1636.6564679780 -4.03E-05
    48 OT SD       0.80E-01    3.0     0.00003777     -1636.6565027819 -3.48E-05
    49 OT SD       0.80E-01    3.1     0.00011309     -1636.6564301500  7.26E-05
    50 OT DIIS     0.80E-01    3.1     0.00040130     -1636.6549170985  1.51E-03
    51 OT SD       0.80E-01    3.1     0.00002307     -1636.6559287803 -1.01E-03
    52 OT DIIS     0.80E-01    3.1     0.00003056     -1636.6559661083 -3.73E-05
    53 OT DIIS     0.80E-01    3.1     0.00002088     -1636.6561259102 -1.60E-04
    54 OT DIIS     0.80E-01    3.1     0.00002025     -1636.6561886408 -6.27E-05
    55 OT SD       0.80E-01    3.1     0.00002470     -1636.6564524074 -2.64E-04
    56 OT SD       0.80E-01    3.1     0.00003497     -1636.6564924504 -4.00E-05
    57 OT SD       0.80E-01    3.1     0.00008584     -1636.6564726420  1.98E-05
    58 OT DIIS     0.80E-01    3.1     0.00028263     -1636.6557390765  7.34E-04
    59 OT DIIS     0.80E-01    3.2     0.00002503     -1636.6558031804 -6.41E-05
    60 OT DIIS     0.80E-01    3.1     0.00002594     -1636.6557996211  3.56E-06
    61 OT DIIS     0.80E-01    3.1     0.00002515     -1636.6558104712 -1.09E-05
    62 OT SD       0.80E-01    3.1     0.00001958     -1636.6563256189 -5.15E-04
    63 OT SD       0.80E-01    3.0     0.00002370     -1636.6563584543 -3.28E-05
    64 OT DIIS     0.80E-01    3.1     0.00004935     -1636.6563740510 -1.56E-05
    65 OT SD       0.80E-01    3.1     0.00002427     -1636.6565979016 -2.24E-04
    66 OT SD       0.80E-01    3.1     0.00002906     -1636.6566512908 -5.34E-05
    67 OT SD       0.80E-01    3.1     0.00006085     -1636.6566822299 -3.09E-05
    68 OT SD       0.80E-01    3.1     0.00020605     -1636.6563498647  3.32E-04
    69 OT DIIS     0.80E-01    3.1     0.00076759     -1636.6508279640  5.52E-03
    70 OT DIIS     0.80E-01    3.2     0.00002459     -1636.6560307749 -5.20E-03
    71 OT SD       0.80E-01    3.1     0.00002259     -1636.6562413707 -2.11E-04
    72 OT SD       0.80E-01    3.1     0.00003715     -1636.6562690354 -2.77E-05
    73 OT SD       0.80E-01    3.1     0.00010992     -1636.6561860317  8.30E-05
    74 OT DIIS     0.80E-01    3.1     0.00037738     -1636.6548093239  1.38E-03
    75 OT DIIS     0.80E-01    3.1     0.00002470     -1636.6561409227 -1.33E-03
    76 OT DIIS     0.80E-01    3.1     0.00001950     -1636.6563947062 -2.54E-04
    77 OT SD       0.80E-01    3.1     0.00002048     -1636.6564667345 -7.20E-05
    78 OT SD       0.80E-01    3.1     0.00002384     -1636.6565049810 -3.82E-05
    79 OT SD       0.80E-01    3.1     0.00004420     -1636.6565328640 -2.79E-05
    80 OT SD       0.80E-01    3.2     0.00013999     -1636.6563947683  1.38E-04
    81 OT DIIS     0.80E-01    3.1     0.00051314     -1636.6539393959  2.46E-03
    82 OT SD       0.80E-01    3.1     0.00002297     -1636.6561449336 -2.21E-03
    83 OT DIIS     0.80E-01    3.1     0.00003618     -1636.6561772449 -3.23E-05
    84 OT DIIS     0.80E-01    3.1     0.00002059     -1636.6562516500 -7.44E-05
    85 OT SD       0.80E-01    3.1     0.00002299     -1636.6563726152 -1.21E-04
    86 OT DIIS     0.80E-01    3.1     0.00003689     -1636.6563989839 -2.64E-05
    87 OT DIIS     0.80E-01    3.1     0.00002633     -1636.6566127247 -2.14E-04
    88 OT SD       0.80E-01    3.1     0.00003012     -1636.6570624605 -4.50E-04
    89 OT SD       0.80E-01    3.2     0.00003990     -1636.6571337339 -7.13E-05
    90 OT SD       0.80E-01    3.1     0.00010428     -1636.6571082923  2.54E-05
    91 OT DIIS     0.80E-01    3.1     0.00036130     -1636.6559094940  1.20E-03
    92 OT SD       0.80E-01    3.1     0.00002350     -1636.6559559928 -4.65E-05
    93 OT SD       0.80E-01    3.1     0.00002902     -1636.6559981638 -4.22E-05
    94 OT SD       0.80E-01    3.1     0.00007377     -1636.6559882649  9.90E-06
    95 OT DIIS     0.80E-01    3.1     0.00025668     -1636.6553906181  5.98E-04
    96 OT DIIS     0.80E-01    3.2     0.00002716     -1636.6550301543  3.60E-04
    97 OT DIIS     0.80E-01    3.1     0.00002887     -1636.6552220714 -1.92E-04
    98 OT DIIS     0.80E-01    3.0     0.00001949     -1636.6560998858 -8.78E-04
    99 OT DIIS     0.80E-01    3.2     0.00001969     -1636.6562795078 -1.80E-04
   100 OT DIIS     0.80E-01    3.1     0.00001916     -1636.6563247928 -4.53E-05
   101 OT DIIS     0.80E-01    3.1     0.00001945     -1636.6563749327 -5.01E-05
   102 OT SD       0.80E-01    3.1     0.00002064     -1636.6565039788 -1.29E-04
   103 OT SD       0.80E-01    3.1     0.00002596     -1636.6565412560 -3.73E-05
   104 OT SD       0.80E-01    3.1     0.00005655     -1636.6565568778 -1.56E-05
   105 OT SD       0.80E-01    3.2     0.00018422     -1636.6562737469  2.83E-04
   106 OT DIIS     0.80E-01    3.2     0.00065405     -1636.6521495940  4.12E-03
   107 OT SD       0.80E-01    3.1     0.00002168     -1636.6560995819 -3.95E-03
   108 OT DIIS     0.80E-01    3.1     0.00003146     -1636.6561320659 -3.25E-05
   109 OT DIIS     0.80E-01    3.1     0.00002114     -1636.6561534224 -2.14E-05
   110 OT SD       0.80E-01    3.1     0.00002268     -1636.6562310807 -7.77E-05
   111 OT DIIS     0.80E-01    3.1     0.00003157     -1636.6562613623 -3.03E-05
   112 OT DIIS     0.80E-01    3.1     0.00002096     -1636.6563156008 -5.42E-05
   113 OT SD       0.80E-01    3.1     0.00002180     -1636.6566937810 -3.78E-04
   114 OT SD       0.80E-01    3.1     0.00002667     -1636.6567346377 -4.09E-05
   115 OT SD       0.80E-01    3.1     0.00005546     -1636.6567550532 -2.04E-05
   116 OT SD       0.80E-01    3.2     0.00018209     -1636.6564902007  2.65E-04
   117 OT DIIS     0.80E-01    3.2     0.00066949     -1636.6522781380  4.21E-03
   118 OT SD       0.80E-01    3.1     0.00002528     -1636.6562022151 -3.92E-03
   119 OT DIIS     0.80E-01    3.1     0.00004347     -1636.6562306834 -2.85E-05
   120 OT DIIS     0.80E-01    3.1     0.00002436     -1636.6566798543 -4.49E-04
   121 OT SD       0.80E-01    3.1     0.00002344     -1636.6567249932 -4.51E-05
   122 OT SD       0.80E-01    3.1     0.00002794     -1636.6567686638 -4.37E-05
   123 OT SD       0.80E-01    3.1     0.00005771     -1636.6567845044 -1.58E-05
   124 OT DIIS     0.80E-01    3.1     0.00017585     -1636.6565220591  2.62E-04
   125 OT SD       0.80E-01    3.1     0.00001978     -1636.6563315140  1.91E-04
   126 OT SD       0.80E-01    3.1     0.00002597     -1636.6563629221 -3.14E-05
   127 OT SD       0.80E-01    3.1     0.00006823     -1636.6563547199  8.20E-06
   128 OT DIIS     0.80E-01    3.1     0.00024355     -1636.6558214594  5.33E-04
   129 OT DIIS     0.80E-01    3.1     0.00001957     -1636.6561489444 -3.27E-04
   130 OT DIIS     0.80E-01    3.1     0.00001977     -1636.6562659121 -1.17E-04
   131 OT DIIS     0.80E-01    3.2     0.00002326     -1636.6567136614 -4.48E-04
   132 OT SD       0.80E-01    3.2     0.00002496     -1636.6568621349 -1.48E-04
   133 OT SD       0.80E-01    3.2     0.00004196     -1636.6569016269 -3.95E-05
   134 OT SD       0.80E-01    3.2     0.00012710     -1636.6568066499  9.50E-05
   135 OT DIIS     0.80E-01    3.1     0.00045926     -1636.6548485847  1.96E-03
   136 OT SD       0.80E-01    3.1     0.00002850     -1636.6560073111 -1.16E-03
   137 OT SD       0.80E-01    3.2     0.00006759     -1636.6560068016  5.10E-07
   138 OT DIIS     0.80E-01    3.1     0.00022379     -1636.6555486661  4.58E-04
   139 OT SD       0.80E-01    3.1     0.00002623     -1636.6555781818 -2.95E-05
   140 OT DIIS     0.80E-01    3.1     0.00004463     -1636.6556113893 -3.32E-05
   141 OT DIIS     0.80E-01    3.1     0.00002399     -1636.6562430188 -6.32E-04
   142 OT SD       0.80E-01    3.2     0.00002508     -1636.6568133787 -5.70E-04
   143 OT SD       0.80E-01    3.1     0.00003317     -1636.6568646582 -5.13E-05
   144 OT SD       0.80E-01    3.1     0.00008276     -1636.6568630280  1.63E-06
   145 OT DIIS     0.80E-01    3.1     0.00028542     -1636.6561435109  7.20E-04
   146 OT SD       0.80E-01    3.1     0.00002756     -1636.6557098756  4.34E-04
   147 OT SD       0.80E-01    3.2     0.00005980     -1636.6557199482 -1.01E-05
   148 OT SD       0.80E-01    3.1     0.00019142     -1636.6553998286  3.20E-04
   149 OT DIIS     0.80E-01    3.1     0.00067080     -1636.6510270591  4.37E-03
   150 OT DIIS     0.80E-01    3.1     0.00002634     -1636.6547623295 -3.74E-03
   151 OT DIIS     0.80E-01    3.1     0.00002575     -1636.6548881936 -1.26E-04
   152 OT SD       0.80E-01    3.1     0.00002085     -1636.6558491948 -9.61E-04
   153 OT DIIS     0.80E-01    3.1     0.00002742     -1636.6558843258 -3.51E-05
   154 OT DIIS     0.80E-01    3.1     0.00002010     -1636.6559146267 -3.03E-05
   155 OT DIIS     0.80E-01    3.1     0.00001994     -1636.6559511701 -3.65E-05
   156 OT DIIS     0.80E-01    3.1     0.00001979     -1636.6560347064 -8.35E-05
   157 OT DIIS     0.80E-01    3.1     0.00002011     -1636.6561885159 -1.54E-04
   158 OT SD       0.80E-01    3.1     0.00001992     -1636.6563018032 -1.13E-04
   159 OT SD       0.80E-01    3.1     0.00002077     -1636.6563399221 -3.81E-05
   160 OT SD       0.80E-01    3.1     0.00002753     -1636.6563756967 -3.58E-05
   161 OT SD       0.80E-01    3.1     0.00006948     -1636.6563730615  2.64E-06
   162 OT DIIS     0.80E-01    3.1     0.00024226     -1636.6558508186  5.22E-04
   163 OT DIIS     0.80E-01    3.1     0.00002089     -1636.6558502390  5.80E-07
   164 OT DIIS     0.80E-01    3.1     0.00002046     -1636.6558847879 -3.45E-05
   165 OT SD       0.80E-01    3.1     0.00002049     -1636.6559045639 -1.98E-05
   166 OT SD       0.80E-01    3.1     0.00002530     -1636.6559397613 -3.52E-05
   167 OT SD       0.80E-01    3.1     0.00005719     -1636.6559475476 -7.79E-06
   168 OT DIIS     0.80E-01    3.1     0.00018704     -1636.6556400887  3.07E-04
   169 OT DIIS     0.80E-01    3.1     0.00001952     -1636.6560882625 -4.48E-04
   170 OT DIIS     0.80E-01    3.1     0.00001993     -1636.6561963108 -1.08E-04
   171 OT DIIS     0.80E-01    3.0     0.00002042     -1636.6562520616 -5.58E-05
   172 OT DIIS     0.80E-01    3.1     0.00002018     -1636.6562625596 -1.05E-05
   173 OT SD       0.80E-01    3.1     0.00001973     -1636.6563858083 -1.23E-04
   174 OT SD       0.80E-01    3.1     0.00002062     -1636.6564236421 -3.78E-05
   175 OT SD       0.80E-01    3.1     0.00002649     -1636.6564604504 -3.68E-05
   176 OT SD       0.80E-01    3.1     0.00006369     -1636.6564665343 -6.08E-06
   177 OT DIIS     0.80E-01    3.1     0.00021887     -1636.6560489147  4.18E-04
   178 OT DIIS     0.80E-01    3.1     0.00002170     -1636.6557064223  3.42E-04
   179 OT DIIS     0.80E-01    3.1     0.00002194     -1636.6557075890 -1.17E-06
   180 OT DIIS     0.80E-01    3.1     0.00002177     -1636.6557106522 -3.06E-06
   181 OT DIIS     0.80E-01    3.0     0.00002428     -1636.6557501999 -3.95E-05
   182 OT SD       0.80E-01    3.1     0.00001978     -1636.6562380026 -4.88E-04
   183 OT DIIS     0.80E-01    3.1     0.00002385     -1636.6562696421 -3.16E-05
   184 OT SD       0.80E-01    3.1     0.00001959     -1636.6563845843 -1.15E-04
   185 OT SD       0.80E-01    3.1     0.00002057     -1636.6564216022 -3.70E-05
   186 OT SD       0.80E-01    3.1     0.00002690     -1636.6564573148 -3.57E-05
   187 OT SD       0.80E-01    3.1     0.00006539     -1636.6564602171 -2.90E-06
   188 OT DIIS     0.80E-01    3.1     0.00022384     -1636.6560192108  4.41E-04
   189 OT SD       0.80E-01    3.2     0.00002183     -1636.6557732997  2.46E-04
   190 OT SD       0.80E-01    3.1     0.00002929     -1636.6558092044 -3.59E-05
   191 OT DIIS     0.80E-01    3.1     0.00007847     -1636.6557912867  1.79E-05
   192 OT DIIS     0.80E-01    3.1     0.00002444     -1636.6558913010 -1.00E-04
   193 OT SD       0.80E-01    3.1     0.00002118     -1636.6559171741 -2.59E-05
   194 OT DIIS     0.80E-01    3.1     0.00003274     -1636.6559460052 -2.88E-05
   195 OT DIIS     0.80E-01    3.1     0.00001949     -1636.6560813186 -1.35E-04
   196 OT DIIS     0.80E-01    3.1     0.00001903     -1636.6561667726 -8.55E-05
   197 OT DIIS     0.80E-01    3.1     0.00001940     -1636.6563292944 -1.63E-04
   198 OT DIIS     0.80E-01    3.1     0.00001972     -1636.6564437355 -1.14E-04
   199 OT SD       0.80E-01    3.1     0.00001980     -1636.6564442526 -5.17E-07
   200 OT SD       0.80E-01    3.0     0.00002354     -1636.6564784958 -3.42E-05

  Leaving inner SCF loop after reaching   200 steps.


  Electronic density on regular grids:       -896.0000011606       -0.0000011606
  Core density on regular grids:              895.9999999261       -0.0000000739
  Total charge density on r-space grids:       -0.0000012345
  Total charge density g-space grids:          -0.0000012345

  Overlap energy of the core charge distribution:               0.00005123469939
  Self energy of the core charge distribution:              -3531.67332257831958
  Core Hamiltonian energy:                                   1018.17120454638405
  Hartree energy:                                            1267.49919329064801
  Exchange-correlation energy:                               -389.82194758543687
  Dispersion energy:                                           -0.83165740378886

  Total energy:                                             -1636.65647849581387

  outer SCF iter =    2 RMS gradient =   0.24E-04 energy =      -1636.6564784958

  ----------------------------------- OT ---------------------------------------
  Minimizer      : DIIS                : direct inversion
                                         in the iterative subspace
                                         using   7 DIIS vectors
                                         safer DIIS on
  Preconditioner : FULL_SINGLE_INVERSE : inversion of 
                                         H + eS - 2*(Sc)(c^T*H*c+const)(Sc)^T
  Precond_solver : DEFAULT
  stepsize       :    0.08000000                  energy_gap     :    0.08000000
  eps_taylor     :   0.10000E-15                  max_taylor     :             4
  ----------------------------------- OT ---------------------------------------

  Step     Update method      Time    Convergence         Total energy    Change
  ------------------------------------------------------------------------------
     1 OT DIIS     0.80E-01    8.4     0.00004414     -1636.6565004150 -2.19E-05
     2 OT DIIS     0.80E-01    3.1     0.00013109     -1636.6563714349  1.29E-04
     3 OT DIIS     0.80E-01    3.1     0.00002479     -1636.6565657465 -1.94E-04
     4 OT SD       0.80E-01    3.1     0.00002120     -1636.6565786524 -1.29E-05
     5 OT SD       0.80E-01    3.1     0.00002243     -1636.6566223690 -4.37E-05
     6 OT SD       0.80E-01    3.1     0.00002614     -1636.6566678010 -4.54E-05
     7 OT SD       0.80E-01    3.1     0.00004511     -1636.6567029864 -3.52E-05
     8 OT SD       0.80E-01    3.1     0.00012626     -1636.6565999905  1.03E-04
     9 OT DIIS     0.80E-01    3.1     0.00041675     -1636.6549111067  1.69E-03
    10 OT SD       0.80E-01    3.1     0.00002101     -1636.6560409760 -1.13E-03
    11 OT SD       0.80E-01    3.1     0.00002241     -1636.6560789358 -3.80E-05
    12 OT SD       0.80E-01    3.0     0.00004449     -1636.6560985389 -1.96E-05
    13 OT SD       0.80E-01    3.0     0.00014882     -1636.6559228814  1.76E-04
    14 OT DIIS     0.80E-01    3.0     0.00054718     -1636.6530881482  2.83E-03
    15 OT DIIS     0.80E-01    3.0     0.00002314     -1636.6559019599 -2.81E-03
    16 OT DIIS     0.80E-01    3.0     0.00001877     -1636.6562252346 -3.23E-04
    17 OT DIIS     0.80E-01    3.4     0.00002095     -1636.6563685254 -1.43E-04
    18 OT DIIS     0.80E-01    3.0     0.00001820     -1636.6564373591 -6.88E-05
    19 OT SD       0.80E-01    3.0     0.00002050     -1636.6565818176 -1.44E-04
    20 OT SD       0.80E-01    3.0     0.00002251     -1636.6566220053 -4.02E-05
    21 OT SD       0.80E-01    3.0     0.00003477     -1636.6566585559 -3.66E-05
    22 OT SD       0.80E-01    2.9     0.00009753     -1636.6566170957  4.15E-05
    23 OT DIIS     0.80E-01    3.0     0.00033899     -1636.6555487053  1.07E-03
    24 OT SD       0.80E-01    3.0     0.00002065     -1636.6561240232 -5.75E-04
    25 OT SD       0.80E-01    2.9     0.00002398     -1636.6561583328 -3.43E-05
    26 OT SD       0.80E-01    3.0     0.00004918     -1636.6561703987 -1.21E-05
    27 OT SD       0.80E-01    3.0     0.00014890     -1636.6559789835  1.91E-04
    28 OT DIIS     0.80E-01    3.0     0.00049302     -1636.6535442800  2.43E-03
    29 OT DIIS     0.80E-01    3.0     0.00002565     -1636.6557613307 -2.22E-03
    30 OT DIIS     0.80E-01    3.0     0.00001876     -1636.6563181101 -5.57E-04
    31 OT DIIS     0.80E-01    3.0     0.00001990     -1636.6563975097 -7.94E-05
    32 OT SD       0.80E-01    3.0     0.00001970     -1636.6565711697 -1.74E-04
    33 OT SD       0.80E-01    3.0     0.00002256     -1636.6566075340 -3.64E-05
    34 OT SD       0.80E-01    3.0     0.00004002     -1636.6566364664 -2.89E-05
    35 OT SD       0.80E-01    2.9     0.00012241     -1636.6565380358  9.84E-05
    36 OT DIIS     0.80E-01    3.0     0.00043601     -1636.6547451978  1.79E-03
    37 OT SD       0.80E-01    3.0     0.00002164     -1636.6560324753 -1.29E-03
    38 OT SD       0.80E-01    3.0     0.00002497     -1636.6560697942 -3.73E-05
    39 OT SD       0.80E-01    3.0     0.00005299     -1636.6560810676 -1.13E-05
    40 OT SD       0.80E-01    2.9     0.00016790     -1636.6558366883  2.44E-04
    41 OT DIIS     0.80E-01    2.9     0.00057860     -1636.6525461531  3.29E-03
    42 OT DIIS     0.80E-01    2.9     0.00002729     -1636.6554349112 -2.89E-03
    43 OT DIIS     0.80E-01    3.0     0.00001897     -1636.6561999032 -7.65E-04
    44 OT DIIS     0.80E-01    2.9     0.00001964     -1636.6562491250 -4.92E-05
    45 OT DIIS     0.80E-01    3.0     0.00001778     -1636.6563485366 -9.94E-05
    46 OT SD       0.80E-01    3.0     0.00001829     -1636.6564314666 -8.29E-05
    47 OT DIIS     0.80E-01    2.9     0.00002276     -1636.6564588213 -2.74E-05
    48 OT DIIS     0.80E-01    3.0     0.00001857     -1636.6564675749 -8.75E-06
    49 OT DIIS     0.80E-01    3.0     0.00001846     -1636.6565153723 -4.78E-05
    50 OT SD       0.80E-01    2.9     0.00002033     -1636.6566526796 -1.37E-04
    51 OT SD       0.80E-01    3.0     0.00002484     -1636.6566898264 -3.71E-05
    52 OT SD       0.80E-01    3.0     0.00005173     -1636.6567095422 -1.97E-05
    53 OT SD       0.80E-01    2.9     0.00016415     -1636.6564905633  2.19E-04
    54 OT DIIS     0.80E-01    3.0     0.00056845     -1636.6533362721  3.15E-03
    55 OT SD       0.80E-01    3.0     0.00002449     -1636.6562399964 -2.90E-03
    56 OT SD       0.80E-01    2.9     0.00005303     -1636.6562515662 -1.16E-05
    57 OT SD       0.80E-01    3.0     0.00017969     -1636.6559757020  2.76E-04
    58 OT DIIS     0.80E-01    2.9     0.00065781     -1636.6518529956  4.12E-03
    59 OT DIIS     0.80E-01    3.0     0.00003009     -1636.6549072798 -3.05E-03
    60 OT DIIS     0.80E-01    3.0     0.00002719     -1636.6558874586 -9.80E-04
    61 OT SD       0.80E-01    3.0     0.00001891     -1636.6562653687 -3.78E-04
    62 OT DIIS     0.80E-01    3.0     0.00002080     -1636.6562975648 -3.22E-05
    63 OT DIIS     0.80E-01    3.0     0.00001897     -1636.6564109783 -1.13E-04
    64 OT DIIS     0.80E-01    3.0     0.00002125     -1636.6565012749 -9.03E-05
    65 OT DIIS     0.80E-01    3.0     0.00002204     -1636.6566240693 -1.23E-04
    66 OT SD       0.80E-01    3.0     0.00002603     -1636.6568612522 -2.37E-04
    67 OT SD       0.80E-01    3.0     0.00003231     -1636.6569184860 -5.72E-05
    68 OT SD       0.80E-01    3.0     0.00006974     -1636.6569430022 -2.45E-05
    69 OT SD       0.80E-01    3.0     0.00023197     -1636.6564999298  4.43E-04
    70 OT DIIS     0.80E-01    3.0     0.00084832     -1636.6496724075  6.83E-03
    71 OT SD       0.80E-01    3.0     0.00002598     -1636.6562842071 -6.61E-03
    72 OT SD       0.80E-01    3.0     0.00005359     -1636.6562953033 -1.11E-05
    73 OT SD       0.80E-01    3.0     0.00016481     -1636.6560543842  2.41E-04
    74 OT DIIS     0.80E-01    2.9     0.00054710     -1636.6530425779  3.01E-03
    75 OT DIIS     0.80E-01    3.0     0.00002555     -1636.6555023727 -2.46E-03
    76 OT DIIS     0.80E-01    3.0     0.00002428     -1636.6560969545 -5.95E-04
    77 OT DIIS     0.80E-01    3.0     0.00001898     -1636.6563646169 -2.68E-04
    78 OT DIIS     0.80E-01    3.0     0.00001828     -1636.6564256981 -6.11E-05
    79 OT SD       0.80E-01    3.0     0.00001920     -1636.6564629368 -3.72E-05
    80 OT SD       0.80E-01    3.0     0.00002853     -1636.6564884127 -2.55E-05
    81 OT SD       0.80E-01    2.9     0.00007858     -1636.6564609958  2.74E-05
    82 OT DIIS     0.80E-01    3.0     0.00027452     -1636.6557616041  6.99E-04
    83 OT DIIS     0.80E-01    3.0     0.00001854     -1636.6565878906 -8.26E-04
    84 OT SD       0.80E-01    3.0     0.00001850     -1636.6566299717 -4.21E-05
    85 OT SD       0.80E-01    3.0     0.00002231     -1636.6566606611 -3.07E-05
    86 OT SD       0.80E-01    3.0     0.00004637     -1636.6566763470 -1.57E-05
    87 OT SD       0.80E-01    2.9     0.00014678     -1636.6565002656  1.76E-04
    88 OT DIIS     0.80E-01    3.0     0.00050638     -1636.6539911571  2.51E-03
    89 OT SD       0.80E-01    2.9     0.00002121     -1636.6561481891 -2.16E-03
    90 OT SD       0.80E-01    3.0     0.00002248     -1636.6561862626 -3.81E-05
    91 OT SD       0.80E-01    3.0     0.00004086     -1636.6562080808 -2.18E-05
    92 OT DIIS     0.80E-01    3.0     0.00012120     -1636.6560963176  1.12E-04
    93 OT SD       0.80E-01    3.0     0.00001887     -1636.6562812471 -1.85E-04
    94 OT DIIS     0.80E-01    3.0     0.00002295     -1636.6563119701 -3.07E-05
    95 OT DIIS     0.80E-01    3.0     0.00001810     -1636.6564722515 -1.60E-04
    96 OT DIIS     0.80E-01    2.9     0.00001908     -1636.6566127775 -1.41E-04
    97 OT DIIS     0.80E-01    3.0     0.00001924     -1636.6566691625 -5.64E-05
    98 OT SD       0.80E-01    3.0     0.00001985     -1636.6567007281 -3.16E-05
    99 OT SD       0.80E-01    3.0     0.00002498     -1636.6567350600 -3.43E-05
   100 OT SD       0.80E-01    3.0     0.00005667     -1636.6567476990 -1.26E-05
   101 OT DIIS     0.80E-01    3.0     0.00019273     -1636.6564358889  3.12E-04
   102 OT SD       0.80E-01    3.0     0.00001963     -1636.6562532269  1.83E-04
   103 OT SD       0.80E-01    3.0     0.00002095     -1636.6562872217 -3.40E-05
   104 OT SD       0.80E-01    3.0     0.00003509     -1636.6563106897 -2.35E-05
   105 OT SD       0.80E-01    3.0     0.00009865     -1636.6562465480  6.41E-05
   106 OT DIIS     0.80E-01    3.0     0.00032605     -1636.6552076189  1.04E-03
   107 OT DIIS     0.80E-01    3.0     0.00002830     -1636.6551797845  2.78E-05
   108 OT DIIS     0.80E-01    3.0     0.00001888     -1636.6563817356 -1.20E-03
   109 OT DIIS     0.80E-01    3.0     0.00001844     -1636.6564215455 -3.98E-05
   110 OT SD       0.80E-01    3.0     0.00001871     -1636.6564401863 -1.86E-05
   111 OT SD       0.80E-01    3.0     0.00002698     -1636.6564662739 -2.61E-05
   112 OT DIIS     0.80E-01    3.0     0.00007475     -1636.6564442546  2.20E-05
   113 OT DIIS     0.80E-01    3.0     0.00001779     -1636.6566145681 -1.70E-04
   114 OT SD       0.80E-01    3.0     0.00002382     -1636.6570017481 -3.87E-04
   115 OT SD       0.80E-01    3.0     0.00002680     -1636.6570548524 -5.31E-05
   116 OT SD       0.80E-01    3.0     0.00004532     -1636.6570990972 -4.42E-05
   117 OT SD       0.80E-01    3.0     0.00012987     -1636.6570002594  9.88E-05
   118 OT DIIS     0.80E-01    3.0     0.00043939     -1636.6551469652  1.85E-03
   119 OT SD       0.80E-01    3.0     0.00002752     -1636.6562421722 -1.10E-03
   120 OT SD       0.80E-01    3.0     0.00005972     -1636.6562525749 -1.04E-05
   121 OT SD       0.80E-01    3.0     0.00019892     -1636.6559043022  3.48E-04
   122 OT DIIS     0.80E-01    3.0     0.00071195     -1636.6510058162  4.90E-03
   123 OT DIIS     0.80E-01    3.0     0.00002970     -1636.6550376450 -4.03E-03
   124 OT DIIS     0.80E-01    3.0     0.00002976     -1636.6553364421 -2.99E-04
   125 OT SD       0.80E-01    3.0     0.00001990     -1636.6561900355 -8.54E-04
   126 OT DIIS     0.80E-01    3.0     0.00002229     -1636.6562248807 -3.48E-05
   127 OT DIIS     0.80E-01    3.0     0.00001893     -1636.6563546082 -1.30E-04
   128 OT DIIS     0.80E-01    3.0     0.00002062     -1636.6567558185 -4.01E-04
   129 OT DIIS     0.80E-01    3.0     0.00002036     -1636.6567711463 -1.53E-05
   130 OT SD       0.80E-01    3.0     0.00002635     -1636.6571074418 -3.36E-04
   131 OT SD       0.80E-01    2.9     0.00002963     -1636.6571717275 -6.43E-05
   132 OT SD       0.80E-01    3.0     0.00005383     -1636.6572192758 -4.75E-05
   133 OT SD       0.80E-01    3.0     0.00017364     -1636.6570062117  2.13E-04
   134 OT DIIS     0.80E-01    3.0     0.00063844     -1636.6531815850  3.82E-03
   135 OT SD       0.80E-01    2.9     0.00002990     -1636.6563303291 -3.15E-03
   136 OT SD       0.80E-01    3.0     0.00007069     -1636.6563231274  7.20E-06
   137 OT DIIS     0.80E-01    3.0     0.00022848     -1636.6558345893  4.89E-04
   138 OT DIIS     0.80E-01    3.0     0.00002806     -1636.6553124151  5.22E-04
   139 OT DIIS     0.80E-01    3.0     0.00002964     -1636.6555183472 -2.06E-04
   140 OT DIIS     0.80E-01    3.0     0.00002930     -1636.6560130762 -4.95E-04
   141 OT SD       0.80E-01    3.0     0.00002004     -1636.6564304865 -4.17E-04
   142 OT SD       0.80E-01    3.0     0.00003128     -1636.6564558136 -2.53E-05
   143 OT DIIS     0.80E-01    3.0     0.00008930     -1636.6564113413  4.45E-05
   144 OT SD       0.80E-01    3.0     0.00001906     -1636.6564242137 -1.29E-05
   145 OT DIIS     0.80E-01    2.9     0.00002618     -1636.6564520651 -2.79E-05
   146 OT DIIS     0.80E-01    3.0     0.00001947     -1636.6564470192  5.05E-06
   147 OT SD       0.80E-01    2.9     0.00001851     -1636.6566142641 -1.67E-04
   148 OT DIIS     0.80E-01    3.0     0.00002710     -1636.6566388156 -2.46E-05
   149 OT SD       0.80E-01    3.0     0.00002714     -1636.6570869269 -4.48E-04
   150 OT SD       0.80E-01    3.0     0.00004152     -1636.6571387764 -5.18E-05
   151 OT SD       0.80E-01    3.0     0.00011708     -1636.6570773765  6.14E-05
   152 OT DIIS     0.80E-01    3.0     0.00041287     -1636.6555001326  1.58E-03
   153 OT SD       0.80E-01    3.0     0.00002200     -1636.6562022943 -7.02E-04
   154 OT SD       0.80E-01    3.0     0.00002452     -1636.6562425515 -4.03E-05
   155 OT SD       0.80E-01    3.0     0.00005081     -1636.6562572765 -1.47E-05
   156 OT SD       0.80E-01    3.0     0.00015795     -1636.6560436311  2.14E-04
   157 OT DIIS     0.80E-01    2.9     0.00053424     -1636.6532142665  2.83E-03
   158 OT DIIS     0.80E-01    3.0     0.00002524     -1636.6554074332 -2.19E-03
   159 OT SD       0.80E-01    3.0     0.00001963     -1636.6563332785 -9.26E-04
   160 OT SD       0.80E-01    3.0     0.00002556     -1636.6563644058 -3.11E-05
   161 OT DIIS     0.80E-01    3.0     0.00006208     -1636.6563629787  1.43E-06
   162 OT DIIS     0.80E-01    3.0     0.00002006     -1636.6563241575  3.88E-05
   163 OT DIIS     0.80E-01    3.0     0.00001881     -1636.6563606016 -3.64E-05
   164 OT DIIS     0.80E-01    3.0     0.00001864     -1636.6566235196 -2.63E-04
   165 OT SD       0.80E-01    3.0     0.00002596     -1636.6569847932 -3.61E-04
   166 OT SD       0.80E-01    2.9     0.00004496     -1636.6570224068 -3.76E-05
   167 OT SD       0.80E-01    3.0     0.00013424     -1636.6569040764  1.18E-04
   168 OT DIIS     0.80E-01    3.0     0.00046340     -1636.6548472969  2.06E-03
   169 OT SD       0.80E-01    3.0     0.00002578     -1636.6553684331 -5.21E-04
   170 OT SD       0.80E-01    3.0     0.00003937     -1636.6554020272 -3.36E-05
   171 OT SD       0.80E-01    3.0     0.00011503     -1636.6553113475  9.07E-05
   172 OT DIIS     0.80E-01    3.1     0.00039958     -1636.6537819949  1.53E-03
   173 OT DIIS     0.80E-01    3.0     0.00005832     -1636.6535469624  2.35E-04
   174 OT DIIS     0.80E-01    3.0     0.00003900     -1636.6542468324 -7.00E-04
   175 OT DIIS     0.80E-01    3.0     0.00002180     -1636.6554941240 -1.25E-03
   176 OT DIIS     0.80E-01    3.0     0.00002288     -1636.6555371895 -4.31E-05
   177 OT DIIS     0.80E-01    3.0     0.00002301     -1636.6555659047 -2.87E-05
   178 OT DIIS     0.80E-01    3.0     0.00002175     -1636.6555922990 -2.64E-05
   179 OT SD       0.80E-01    3.0     0.00002078     -1636.6556678452 -7.55E-05
   180 OT SD       0.80E-01    3.0     0.00002670     -1636.6556999857 -3.21E-05
   181 OT SD       0.80E-01    3.0     0.00005945     -1636.6557024633 -2.48E-06
   182 OT DIIS     0.80E-01    3.0     0.00018788     -1636.6553868895  3.16E-04
   183 OT DIIS     0.80E-01    3.0     0.00001913     -1636.6557448441 -3.58E-04
   184 OT DIIS     0.80E-01    2.9     0.00001914     -1636.6557473516 -2.51E-06
   185 OT DIIS     0.80E-01    2.9     0.00001948     -1636.6557502117 -2.86E-06
   186 OT DIIS     0.80E-01    2.9     0.00001909     -1636.6557712993 -2.11E-05
   187 OT SD       0.80E-01    2.9     0.00001898     -1636.6558040538 -3.28E-05
   188 OT SD       0.80E-01    3.0     0.00001960     -1636.6558387565 -3.47E-05
   189 OT SD       0.80E-01    2.9     0.00002578     -1636.6558708620 -3.21E-05
   190 OT SD       0.80E-01    2.9     0.00006552     -1636.6558678071  3.05E-06
   191 OT DIIS     0.80E-01    2.9     0.00022893     -1636.6553990807  4.69E-04
   192 OT SD       0.80E-01    3.0     0.00001835     -1636.6553867962  1.23E-05
   193 OT SD       0.80E-01    2.9     0.00001874     -1636.6554189910 -3.22E-05
   194 OT SD       0.80E-01    2.9     0.00002242     -1636.6554495895 -3.06E-05
   195 OT SD       0.80E-01    3.0     0.00004739     -1636.6554629795 -1.34E-05
   196 OT DIIS     0.80E-01    2.9     0.00015498     -1636.6552630086  2.00E-04
   197 OT DIIS     0.80E-01    2.9     0.00001901     -1636.6552029947  6.00E-05
   198 OT SD       0.80E-01    3.3     0.00001875     -1636.6554135754 -2.11E-04
   199 OT SD       0.80E-01    3.0     0.00002433     -1636.6554428147 -2.92E-05
   200 OT SD       0.80E-01    3.1     0.00005743     -1636.6554447032 -1.89E-06

  Leaving inner SCF loop after reaching   200 steps.


  Electronic density on regular grids:       -896.0000012095       -0.0000012095
  Core density on regular grids:              895.9999999261       -0.0000000739
  Total charge density on r-space grids:       -0.0000012834
  Total charge density g-space grids:          -0.0000012834

  Overlap energy of the core charge distribution:               0.00005123469939
  Self energy of the core charge distribution:              -3531.67332257831958
  Core Hamiltonian energy:                                   1018.17842715559163
  Hartree energy:                                            1267.49317180146727
  Exchange-correlation energy:                               -389.82211491287137
  Dispersion energy:                                           -0.83165740378886

  Total energy:                                             -1636.65544470322152

  outer SCF iter =    3 RMS gradient =   0.57E-04 energy =      -1636.6554447032

  ----------------------------------- OT ---------------------------------------
  Minimizer      : DIIS                : direct inversion
                                         in the iterative subspace
                                         using   7 DIIS vectors
                                         safer DIIS on
  Preconditioner : FULL_SINGLE_INVERSE : inversion of 
                                         H + eS - 2*(Sc)(c^T*H*c+const)(Sc)^T
  Precond_solver : DEFAULT
  stepsize       :    0.08000000                  energy_gap     :    0.08000000
  eps_taylor     :   0.10000E-15                  max_taylor     :             4
  ----------------------------------- OT ---------------------------------------

  Step     Update method      Time    Convergence         Total energy    Change
  ------------------------------------------------------------------------------
     1 OT DIIS     0.80E-01    8.1     0.00018687     -1636.6551315035  3.13E-04
     2 OT DIIS     0.80E-01    3.0     0.00064833     -1636.6509942819  4.14E-03
     3 OT DIIS     0.80E-01    3.0     0.00004492     -1636.6555314571 -4.54E-03
     4 OT DIIS     0.80E-01    2.9     0.00001843     -1636.6555570899 -2.56E-05
     5 OT SD       0.80E-01    3.0     0.00001837     -1636.6555613055 -4.22E-06
     6 OT SD       0.80E-01    3.0     0.00001859     -1636.6555940705 -3.28E-05
     7 OT SD       0.80E-01    3.0     0.00002018     -1636.6556264216 -3.24E-05
     8 OT SD       0.80E-01    3.0     0.00003268     -1636.6556523640 -2.59E-05
     9 OT SD       0.80E-01    3.0     0.00009465     -1636.6556003568  5.20E-05
    10 OT DIIS     0.80E-01    3.0     0.00032836     -1636.6545775709  1.02E-03
    11 OT SD       0.80E-01    2.9     0.00001807     -1636.6549707809 -3.93E-04
    12 OT SD       0.80E-01    3.0     0.00001842     -1636.6550012481 -3.05E-05
    13 OT SD       0.80E-01    3.0     0.00002276     -1636.6550290763 -2.78E-05
    14 OT SD       0.80E-01    3.0     0.00004996     -1636.6550368118 -7.74E-06
    15 OT DIIS     0.80E-01    3.0     0.00016332     -1636.6548063205  2.30E-04
    16 OT DIIS     0.80E-01    3.0     0.00001813     -1636.6550171003 -2.11E-04
    17 OT DIIS     0.80E-01    3.0     0.00001790     -1636.6551603445 -1.43E-04
    18 OT DIIS     0.80E-01    3.0     0.00001763     -1636.6552590633 -9.87E-05
    19 OT DIIS     0.80E-01    3.0     0.00001728     -1636.6552902637 -3.12E-05
    20 OT DIIS     0.80E-01    3.0     0.00001676     -1636.6553295175 -3.93E-05
    21 OT DIIS     0.80E-01    3.0     0.00001684     -1636.6553299648 -4.47E-07
    22 OT DIIS     0.80E-01    3.0     0.00001667     -1636.6553707477 -4.08E-05
    23 OT DIIS     0.80E-01    3.0     0.00001665     -1636.6553947695 -2.40E-05
    24 OT DIIS     0.80E-01    3.0     0.00001775     -1636.6554676144 -7.28E-05
    25 OT DIIS     0.80E-01    3.0     0.00001643     -1636.6554818907 -1.43E-05
    26 OT DIIS     0.80E-01    3.0     0.00001644     -1636.6554907205 -8.83E-06
    27 OT SD       0.80E-01    3.0     0.00001648     -1636.6554912981 -5.78E-07
    28 OT SD       0.80E-01    3.0     0.00001770     -1636.6555170846 -2.58E-05
    29 OT SD       0.80E-01    3.0     0.00002868     -1636.6555382121 -2.11E-05
    30 OT SD       0.80E-01    3.0     0.00008686     -1636.6554945461  4.37E-05
    31 OT DIIS     0.80E-01    3.0     0.00031248     -1636.6545805537  9.14E-04
    32 OT SD       0.80E-01    3.0     0.00001582     -1636.6549209666 -3.40E-04
    33 OT SD       0.80E-01    3.0     0.00001779     -1636.6549429117 -2.19E-05
    34 OT SD       0.80E-01    3.0     0.00003451     -1636.6549556604 -1.27E-05
    35 OT DIIS     0.80E-01    3.0     0.00011343     -1636.6548563011  9.94E-05
    36 OT DIIS     0.80E-01    3.0     0.00001513     -1636.6547472808  1.09E-04
    37 OT SD       0.80E-01    2.9     0.00001515     -1636.6547757068 -2.84E-05
    38 OT SD       0.80E-01    3.0     0.00001933     -1636.6547949338 -1.92E-05
    39 OT SD       0.80E-01    3.0     0.00004616     -1636.6547963807 -1.45E-06
    40 OT DIIS     0.80E-01    3.0     0.00015466     -1636.6545826249  2.14E-04
    41 OT DIIS     0.80E-01    3.0     0.00001476     -1636.6548744558 -2.92E-04
    42 OT DIIS     0.80E-01    2.9     0.00001446     -1636.6550098797 -1.35E-04
    43 OT DIIS     0.80E-01    3.0     0.00001435     -1636.6550853949 -7.55E-05
    44 OT DIIS     0.80E-01    3.0     0.00001388     -1636.6551103875 -2.50E-05
    45 OT DIIS     0.80E-01    3.0     0.00001350     -1636.6551460057 -3.56E-05
    46 OT DIIS     0.80E-01    2.9     0.00001362     -1636.6551649570 -1.90E-05
    47 OT DIIS     0.80E-01    3.0     0.00001349     -1636.6551938715 -2.89E-05
    48 OT DIIS     0.80E-01    3.0     0.00001348     -1636.6552240292 -3.02E-05
    49 OT DIIS     0.80E-01    3.0     0.00001345     -1636.6552618896 -3.79E-05
    50 OT SD       0.80E-01    3.0     0.00001342     -1636.6552734978 -1.16E-05
    51 OT SD       0.80E-01    3.0     0.00001349     -1636.6552910440 -1.75E-05
    52 OT SD       0.80E-01    2.9     0.00001385     -1636.6553085619 -1.75E-05
    53 OT SD       0.80E-01    3.0     0.00001660     -1636.6553252948 -1.67E-05
    54 OT SD       0.80E-01    2.9     0.00003366     -1636.6553333224 -8.03E-06
    55 OT SD       0.80E-01    3.0     0.00010321     -1636.6552451504  8.82E-05
    56 OT DIIS     0.80E-01    3.0     0.00035019     -1636.6540397713  1.21E-03
    57 OT DIIS     0.80E-01    3.0     0.00001430     -1636.6548569845 -8.17E-04
    58 OT DIIS     0.80E-01    2.9     0.00001372     -1636.6549442487 -8.73E-05
    59 OT DIIS     0.80E-01    3.0     0.00001405     -1636.6549649743 -2.07E-05
    60 OT SD       0.80E-01    2.9     0.00001352     -1636.6552032914 -2.38E-04
    61 OT DIIS     0.80E-01    2.9     0.00001514     -1636.6552197919 -1.65E-05
    62 OT SD       0.80E-01    3.0     0.00001333     -1636.6552508867 -3.11E-05
    63 OT SD       0.80E-01    2.9     0.00001402     -1636.6552675935 -1.67E-05
    64 OT SD       0.80E-01    3.0     0.00001811     -1636.6552829338 -1.53E-05
    65 OT SD       0.80E-01    3.0     0.00003836     -1636.6552863035 -3.37E-06
    66 OT DIIS     0.80E-01    2.9     0.00011438     -1636.6551706362  1.16E-04
    67 OT SD       0.80E-01    3.0     0.00001333     -1636.6550748755  9.58E-05
    68 OT SD       0.80E-01    2.9     0.00001542     -1636.6550908523 -1.60E-05
    69 OT SD       0.80E-01    3.0     0.00003095     -1636.6550994707 -8.62E-06
    70 OT SD       0.80E-01    3.0     0.00009829     -1636.6550215271  7.79E-05
    71 OT DIIS     0.80E-01    3.0     0.00034316     -1636.6538776066  1.14E-03
    72 OT DIIS     0.80E-01    3.0     0.00001314     -1636.6551287811 -1.25E-03
    73 OT DIIS     0.80E-01    2.9     0.00001299     -1636.6551655933 -3.68E-05
    74 OT DIIS     0.80E-01    3.0     0.00001299     -1636.6551701254 -4.53E-06
    75 OT DIIS     0.80E-01    2.9     0.00001298     -1636.6551779433 -7.82E-06
    76 OT DIIS     0.80E-01    3.0     0.00001299     -1636.6551870371 -9.09E-06
    77 OT DIIS     0.80E-01    2.9     0.00001298     -1636.6552028953 -1.59E-05
    78 OT SD       0.80E-01    3.0     0.00001298     -1636.6552155315 -1.26E-05
    79 OT SD       0.80E-01    3.0     0.00001311     -1636.6552319122 -1.64E-05
    80 OT SD       0.80E-01    3.0     0.00001421     -1636.6552480446 -1.61E-05
    81 OT SD       0.80E-01    2.9     0.00002343     -1636.6552607650 -1.27E-05
    82 OT SD       0.80E-01    2.9     0.00006856     -1636.6552321217  2.86E-05
    83 OT DIIS     0.80E-01    2.9     0.00023472     -1636.6547018046  5.30E-04
    84 OT DIIS     0.80E-01    3.0     0.00001370     -1636.6547741790 -7.24E-05
    85 OT DIIS     0.80E-01    3.0     0.00001420     -1636.6548211502 -4.70E-05
    86 OT DIIS     0.80E-01    3.0     0.00001386     -1636.6548546385 -3.35E-05
    87 OT DIIS     0.80E-01    2.9     0.00001335     -1636.6551787881 -3.24E-04
    88 OT DIIS     0.80E-01    3.0     0.00001304     -1636.6552355870 -5.68E-05
    89 OT SD       0.80E-01    3.0     0.00001307     -1636.6552373305 -1.74E-06
    90 OT SD       0.80E-01    3.0     0.00001374     -1636.6552535478 -1.62E-05
    91 OT SD       0.80E-01    3.0     0.00001919     -1636.6552680268 -1.45E-05
    92 OT SD       0.80E-01    3.0     0.00005003     -1636.6552615248  6.50E-06
    93 OT DIIS     0.80E-01    3.0     0.00017239     -1636.6549897585  2.72E-04
    94 OT DIIS     0.80E-01    3.0     0.00001380     -1636.6547632374  2.27E-04
    95 OT DIIS     0.80E-01    3.0     0.00001437     -1636.6548317134 -6.85E-05
    96 OT DIIS     0.80E-01    2.9     0.00001404     -1636.6549053123 -7.36E-05
    97 OT SD       0.80E-01    3.0     0.00001330     -1636.6552991146 -3.94E-04
    98 OT SD       0.80E-01    2.9     0.00001445     -1636.6553154753 -1.64E-05
    99 OT SD       0.80E-01    3.0     0.00002295     -1636.6553287138 -1.32E-05
   100 OT DIIS     0.80E-01    3.0     0.00006485     -1636.6553055062  2.32E-05
   101 OT SD       0.80E-01    3.0     0.00001347     -1636.6553174748 -1.20E-05
   102 OT SD       0.80E-01    3.0     0.00001584     -1636.6553335982 -1.61E-05
   103 OT SD       0.80E-01    2.9     0.00003261     -1636.6553418012 -8.20E-06
   104 OT DIIS     0.80E-01    3.0     0.00010715     -1636.6552489500  9.29E-05
   105 OT DIIS     0.80E-01    3.0     0.00001396     -1636.6551894604  5.95E-05
   106 OT SD       0.80E-01    3.0     0.00001328     -1636.6551924059 -2.95E-06
   107 OT SD       0.80E-01    3.0     0.00001613     -1636.6552076555 -1.52E-05
   108 OT SD       0.80E-01    3.0     0.00003448     -1636.6552135066 -5.85E-06
   109 OT DIIS     0.80E-01    3.0     0.00010943     -1636.6551111636  1.02E-04
   110 OT DIIS     0.80E-01    3.0     0.00001319     -1636.6551558931 -4.47E-05
   111 OT SD       0.80E-01    3.0     0.00001298     -1636.6552098219 -5.39E-05
   112 OT SD       0.80E-01    3.0     0.00001380     -1636.6552257561 -1.59E-05
   113 OT SD       0.80E-01    3.0     0.00002065     -1636.6552393534 -1.36E-05
   114 OT SD       0.80E-01    2.9     0.00005648     -1636.6552254792  1.39E-05
   115 OT DIIS     0.80E-01    2.9     0.00019333     -1636.6548751789  3.50E-04
   116 OT DIIS     0.80E-01    3.0     0.00001310     -1636.6549110178 -3.58E-05
   117 OT DIIS     0.80E-01    3.0     0.00001401     -1636.6549816863 -7.07E-05
   118 OT DIIS     0.80E-01    2.9     0.00001509     -1636.6550435675 -6.19E-05
   119 OT DIIS     0.80E-01    3.0     0.00001296     -1636.6551395238 -9.60E-05
   120 OT DIIS     0.80E-01    2.9     0.00001295     -1636.6551510908 -1.16E-05
   121 OT SD       0.80E-01    2.9     0.00001293     -1636.6552165893 -6.55E-05
   122 OT SD       0.80E-01    2.9     0.00001344     -1636.6552326083 -1.60E-05
   123 OT SD       0.80E-01    2.9     0.00001794     -1636.6552472621 -1.47E-05
   124 OT SD       0.80E-01    2.9     0.00004474     -1636.6552453512  1.91E-06
   125 OT SD       0.80E-01    2.9     0.00015243     -1636.6550359331  2.09E-04
   126 OT DIIS     0.80E-01    3.0     0.00054905     -1636.6521276574  2.91E-03
   127 OT DIIS     0.80E-01    3.0     0.00001360     -1636.6547384346 -2.61E-03
   128 OT DIIS     0.80E-01    2.9     0.00001435     -1636.6548328975 -9.45E-05
   129 OT DIIS     0.80E-01    3.0     0.00001364     -1636.6549423986 -1.10E-04
   130 OT SD       0.80E-01    2.9     0.00001321     -1636.6553207448 -3.78E-04
   131 OT SD       0.80E-01    2.9     0.00001396     -1636.6553371585 -1.64E-05
   132 OT SD       0.80E-01    3.0     0.00001887     -1636.6553519563 -1.48E-05
   133 OT SD       0.80E-01    2.9     0.00004308     -1636.6553510754  8.81E-07
   134 OT DIIS     0.80E-01    3.0     0.00013028     -1636.6551930416  1.58E-04
   135 OT SD       0.80E-01    3.0     0.00001396     -1636.6550632741  1.30E-04
   136 OT SD       0.80E-01    3.0     0.00002197     -1636.6550761252 -1.29E-05
   137 OT SD       0.80E-01    2.9     0.00006448     -1636.6550528744  2.33E-05
   138 OT DIIS     0.80E-01    2.9     0.00022915     -1636.6545611164  4.92E-04
   139 OT DIIS     0.80E-01    3.0     0.00001384     -1636.6547185152 -1.57E-04
   140 OT DIIS     0.80E-01    2.9     0.00001330     -1636.6550867654 -3.68E-04
   141 OT SD       0.80E-01    3.0     0.00001317     -1636.6552420775 -1.55E-04
   142 OT SD       0.80E-01    2.9     0.00001521     -1636.6552576694 -1.56E-05
   143 OT DIIS     0.80E-01    3.1     0.00002996     -1636.6552666833 -9.01E-06
   144 OT DIIS     0.80E-01    3.2     0.00001346     -1636.6553097797 -4.31E-05
   145 OT SD       0.80E-01    3.2     0.00001334     -1636.6553294375 -1.97E-05
   146 OT SD       0.80E-01    3.4     0.00001575     -1636.6553454444 -1.60E-05
   147 OT SD       0.80E-01    3.4     0.00003393     -1636.6553527997 -7.36E-06
   148 OT DIIS     0.80E-01    3.3     0.00011484     -1636.6552439608  1.09E-04
   149 OT DIIS     0.80E-01    3.1     0.00001381     -1636.6551195797  1.24E-04
   150 OT SD       0.80E-01    3.2     0.00001335     -1636.6552025117 -8.29E-05
   151 OT SD       0.80E-01    2.9     0.00001730     -1636.6552172747 -1.48E-05
   152 OT SD       0.80E-01    3.0     0.00004197     -1636.6552176587 -3.84E-07
   153 OT DIIS     0.80E-01    3.4     0.00014385     -1636.6550346187  1.83E-04
   154 OT DIIS     0.80E-01    3.2     0.00001334     -1636.6550400793 -5.46E-06
   155 OT SD       0.80E-01    3.1     0.00001291     -1636.6551961798 -1.56E-04
   156 OT SD       0.80E-01    3.1     0.00001372     -1636.6552119435 -1.58E-05
   157 OT SD       0.80E-01    3.1     0.00002076     -1636.6552253193 -1.34E-05
   158 OT SD       0.80E-01    3.0     0.00005829     -1636.6552094715  1.58E-05
   159 OT DIIS     0.80E-01    3.0     0.00020242     -1636.6548251962  3.84E-04
   160 OT DIIS     0.80E-01    3.0     0.00001283     -1636.6550719485 -2.47E-04
   161 OT DIIS     0.80E-01    3.0     0.00001284     -1636.6550771855 -5.24E-06
   162 OT DIIS     0.80E-01    3.0     0.00001285     -1636.6550852624 -8.08E-06
   163 OT SD       0.80E-01    3.0     0.00001292     -1636.6550885632 -3.30E-06
   164 OT SD       0.80E-01    3.0     0.00001461     -1636.6551038886 -1.53E-05
   165 OT SD       0.80E-01    3.1     0.00002853     -1636.6551133332 -9.44E-06
   166 OT DIIS     0.80E-01    3.0     0.00009371     -1636.6550457746  6.76E-05
   167 OT DIIS     0.80E-01    3.0     0.00001282     -1636.6551270715 -8.13E-05
   168 OT DIIS     0.80E-01    3.0     0.00001277     -1636.6551517594 -2.47E-05
   169 OT SD       0.80E-01    3.0     0.00001286     -1636.6551533403 -1.58E-06
   170 OT DIIS     0.80E-01    3.0     0.00001478     -1636.6551684426 -1.51E-05
   171 OT SD       0.80E-01    3.0     0.00001270     -1636.6552162110 -4.78E-05
   172 OT SD       0.80E-01    3.0     0.00001304     -1636.6552317636 -1.56E-05
   173 OT SD       0.80E-01    3.0     0.00001655     -1636.6552463394 -1.46E-05
   174 OT SD       0.80E-01    3.0     0.00004022     -1636.6552479329 -1.59E-06
   175 OT DIIS     0.80E-01    3.1     0.00013995     -1636.6550761923  1.72E-04
   176 OT SD       0.80E-01    3.0     0.00001265     -1636.6551041440 -2.80E-05
   177 OT SD       0.80E-01    3.0     0.00001282     -1636.6551196203 -1.55E-05
   178 OT SD       0.80E-01    3.0     0.00001470     -1636.6551345334 -1.49E-05
   179 OT SD       0.80E-01    3.0     0.00002852     -1636.6551434352 -8.90E-06
   180 OT DIIS     0.80E-01    3.0     0.00008931     -1636.6550810879  6.23E-05
   181 OT DIIS     0.80E-01    3.0     0.00001287     -1636.6550417845  3.93E-05
   182 OT SD       0.80E-01    3.0     0.00001261     -1636.6551665572 -1.25E-04
   183 OT SD       0.80E-01    3.0     0.00001267     -1636.6551820325 -1.55E-05
   184 OT SD       0.80E-01    3.1     0.00001313     -1636.6551974093 -1.54E-05
   185 OT SD       0.80E-01    3.0     0.00001678     -1636.6552116692 -1.43E-05
   186 OT SD       0.80E-01    3.0     0.00003701     -1636.6552146143 -2.95E-06
   187 OT SD       0.80E-01    3.0     0.00011316     -1636.6550996914  1.15E-04
   188 OT DIIS     0.80E-01    3.0     0.00037172     -1636.6537056054  1.39E-03
   189 OT DIIS     0.80E-01    3.0     0.00001366     -1636.6547875632 -1.08E-03
   190 OT DIIS     0.80E-01    3.0     0.00001311     -1636.6548389171 -5.14E-05
   191 OT DIIS     0.80E-01    3.0     0.00001406     -1636.6548960184 -5.71E-05
   192 OT SD       0.80E-01    3.0     0.00001295     -1636.6553531771 -4.57E-04
   193 OT SD       0.80E-01    3.0     0.00001336     -1636.6553691862 -1.60E-05
   194 OT SD       0.80E-01    3.0     0.00001583     -1636.6553845288 -1.53E-05
   195 OT SD       0.80E-01    3.0     0.00003000     -1636.6553932117 -8.68E-06
   196 OT SD       0.80E-01    3.0     0.00008732     -1636.6553330500  6.02E-05
   197 OT DIIS     0.80E-01    3.0     0.00028709     -1636.6545146140  8.18E-04
   198 OT DIIS     0.80E-01    3.0     0.00001405     -1636.6548573793 -3.43E-04
   199 OT SD       0.80E-01    3.0     0.00001465     -1636.6549229968 -6.56E-05
   200 OT DIIS     0.80E-01    3.0     0.00002343     -1636.6549358661 -1.29E-05

  Leaving inner SCF loop after reaching   200 steps.


  Electronic density on regular grids:       -896.0000012198       -0.0000012198
  Core density on regular grids:              895.9999999261       -0.0000000739
  Total charge density on r-space grids:       -0.0000012937
  Total charge density g-space grids:          -0.0000012937

  Overlap energy of the core charge distribution:               0.00005123469939
  Self energy of the core charge distribution:              -3531.67332257831958
  Core Hamiltonian energy:                                   1018.18009516538177
  Hartree energy:                                            1267.49163895110883
  Exchange-correlation energy:                               -389.82174123515654
  Dispersion energy:                                           -0.83165740378886

  Total energy:                                             -1636.65493586607522

  outer SCF iter =    4 RMS gradient =   0.23E-04 energy =      -1636.6549358661

  ----------------------------------- OT ---------------------------------------
  Minimizer      : DIIS                : direct inversion
                                         in the iterative subspace
                                         using   7 DIIS vectors
                                         safer DIIS on
  Preconditioner : FULL_SINGLE_INVERSE : inversion of 
                                         H + eS - 2*(Sc)(c^T*H*c+const)(Sc)^T
  Precond_solver : DEFAULT
  stepsize       :    0.08000000                  energy_gap     :    0.08000000
  eps_taylor     :   0.10000E-15                  max_taylor     :             4
  ----------------------------------- OT ---------------------------------------

  Step     Update method      Time    Convergence         Total energy    Change
  ------------------------------------------------------------------------------
     1 OT DIIS     0.80E-01    8.0     0.00001316     -1636.6552810276 -3.45E-04
     2 OT DIIS     0.80E-01    3.0     0.00001635     -1636.6552957349 -1.47E-05
     3 OT DIIS     0.80E-01    3.0     0.00001279     -1636.6553007742 -5.04E-06
     4 OT DIIS     0.80E-01    2.9     0.00001274     -1636.6553063309 -5.56E-06
     5 OT SD       0.80E-01    3.0     0.00001274     -1636.6553072026 -8.72E-07
     6 OT SD       0.80E-01    3.0     0.00001279     -1636.6553230262 -1.58E-05
     7 OT SD       0.80E-01    3.0     0.00001305     -1636.6553388656 -1.58E-05
     8 OT SD       0.80E-01    3.1     0.00001537     -1636.6553541360 -1.53E-05
     9 OT SD       0.80E-01    2.9     0.00003133     -1636.6553620115 -7.88E-06
    10 OT SD       0.80E-01    3.0     0.00009900     -1636.6552818696  8.01E-05
    11 OT DIIS     0.80E-01    3.0     0.00034199     -1636.6541373868  1.14E-03
    12 OT DIIS     0.80E-01    3.0     0.00001563     -1636.6545199994 -3.83E-04
    13 OT DIIS     0.80E-01    3.1     0.00001549     -1636.6547760961 -2.56E-04
    14 OT DIIS     0.80E-01    3.0     0.00001462     -1636.6548994120 -1.23E-04
    15 OT DIIS     0.80E-01    3.0     0.00001463     -1636.6553107281 -4.11E-04
    16 OT SD       0.80E-01    3.0     0.00001409     -1636.6555960145 -2.85E-04
    17 OT DIIS     0.80E-01    3.0     0.00001425     -1636.6556150192 -1.90E-05
    18 OT SD       0.80E-01    3.0     0.00001546     -1636.6556162730 -1.25E-06
    19 OT SD       0.80E-01    3.0     0.00002249     -1636.6556329062 -1.66E-05
    20 OT SD       0.80E-01    3.0     0.00005725     -1636.6556205363  1.24E-05
    21 OT SD       0.80E-01    3.0     0.00018178     -1636.6553029661  3.18E-04
    22 OT DIIS     0.80E-01    3.0     0.00060386     -1636.6516129021  3.69E-03
    23 OT SD       0.80E-01    3.0     0.00001416     -1636.6555391366 -3.93E-03
    24 OT SD       0.80E-01    3.0     0.00002055     -1636.6555543309 -1.52E-05
    25 OT SD       0.80E-01    3.0     0.00005683     -1636.6555421928  1.21E-05
    26 OT DIIS     0.80E-01    3.1     0.00019883     -1636.6551757751  3.66E-04
    27 OT SD       0.80E-01    3.0     0.00001305     -1636.6554138706 -2.38E-04
    28 OT SD       0.80E-01    3.0     0.00001440     -1636.6554295057 -1.56E-05
    29 OT SD       0.80E-01    3.0     0.00002533     -1636.6554406616 -1.12E-05
    30 OT SD       0.80E-01    3.0     0.00007643     -1636.6554001645  4.05E-05
    31 OT DIIS     0.80E-01    3.0     0.00026510     -1636.6547238617  6.76E-04
    32 OT DIIS     0.80E-01    3.0     0.00001405     -1636.6553658933 -6.42E-04
    33 OT SD       0.80E-01    3.0     0.00001318     -1636.6554434008 -7.75E-05
    34 OT SD       0.80E-01    3.0     0.00001699     -1636.6554578547 -1.45E-05
    35 OT SD       0.80E-01    3.0     0.00003887     -1636.6554598331 -1.98E-06
    36 OT DIIS     0.80E-01    3.0     0.00012207     -1636.6553248753  1.35E-04
    37 OT SD       0.80E-01    3.0     0.00001304     -1636.6552734107  5.15E-05
    38 OT SD       0.80E-01    3.0     0.00001750     -1636.6552858850 -1.25E-05
    39 OT SD       0.80E-01    2.9     0.00003949     -1636.6552852407  6.44E-07
    40 OT DIIS     0.80E-01    3.1     0.00012125     -1636.6551502242  1.35E-04
    41 OT DIIS     0.80E-01    3.0     0.00001243     -1636.6550801112  7.01E-05
    42 OT DIIS     0.80E-01    3.0     0.00001263     -1636.6551201572 -4.00E-05
    43 OT SD       0.80E-01    3.0     0.00001203     -1636.6552391978 -1.19E-04
    44 OT SD       0.80E-01    3.0     0.00001352     -1636.6552525196 -1.33E-05
    45 OT SD       0.80E-01    3.0     0.00002539     -1636.6552612944 -8.77E-06
    46 OT DIIS     0.80E-01    3.0     0.00008006     -1636.6552132457  4.80E-05
    47 OT SD       0.80E-01    3.0     0.00001194     -1636.6552192640 -6.02E-06
    48 OT SD       0.80E-01    3.0     0.00001274     -1636.6552327188 -1.35E-05
    49 OT SD       0.80E-01    3.0     0.00001930     -1636.6552440413 -1.13E-05
    50 OT SD       0.80E-01    3.0     0.00005207     -1636.6552316022  1.24E-05
    51 OT DIIS     0.80E-01    3.0     0.00017173     -1636.6549487422  2.83E-04
    52 OT DIIS     0.80E-01    3.0     0.00001197     -1636.6550924940 -1.44E-04
    53 OT DIIS     0.80E-01    3.0     0.00001185     -1636.6551173617 -2.49E-05
    54 OT DIIS     0.80E-01    3.0     0.00001185     -1636.6551181399 -7.78E-07
    55 OT SD       0.80E-01    3.0     0.00001184     -1636.6551366456 -1.85E-05
    56 OT DIIS     0.80E-01    3.0     0.00001202     -1636.6551501807 -1.35E-05
    57 OT DIIS     0.80E-01    3.0     0.00001183     -1636.6551630329 -1.29E-05
    58 OT DIIS     0.80E-01    3.0     0.00001181     -1636.6551913873 -2.84E-05
    59 OT SD       0.80E-01    3.0     0.00001181     -1636.6551915729 -1.86E-07
    60 OT SD       0.80E-01    3.0     0.00001185     -1636.6552051561 -1.36E-05
    61 OT SD       0.80E-01    3.0     0.00001209     -1636.6552187030 -1.35E-05
    62 OT SD       0.80E-01    3.0     0.00001410     -1636.6552317333 -1.30E-05
    63 OT SD       0.80E-01    3.0     0.00002749     -1636.6552390847 -7.35E-06
    64 OT SD       0.80E-01    3.0     0.00008326     -1636.6551835858  5.55E-05
    65 OT DIIS     0.80E-01    3.0     0.00027796     -1636.6544160964  7.67E-04
    66 OT DIIS     0.80E-01    3.0     0.00001480     -1636.6544844331 -6.83E-05
    67 OT DIIS     0.80E-01    3.0     0.00001268     -1636.6548575261 -3.73E-04
    68 OT DIIS     0.80E-01    3.0     0.00001224     -1636.6549539149 -9.64E-05
    69 OT SD       0.80E-01    3.0     0.00001240     -1636.6553965204 -4.43E-04
    70 OT SD       0.80E-01    3.0     0.00001287     -1636.6554109112 -1.44E-05
    71 OT SD       0.80E-01    3.0     0.00001612     -1636.6554243030 -1.34E-05
    72 OT SD       0.80E-01    3.0     0.00003347     -1636.6554287444 -4.44E-06
    73 OT SD       0.80E-01    3.1     0.00009922     -1636.6553428198  8.59E-05
    74 OT DIIS     0.80E-01    3.0     0.00032061     -1636.6543001364  1.04E-03
    75 OT SD       0.80E-01    3.0     0.00001245     -1636.6550179419 -7.18E-04
    76 OT SD       0.80E-01    3.0     0.00001604     -1636.6550306312 -1.27E-05
    77 OT SD       0.80E-01    3.0     0.00003781     -1636.6550313996 -7.68E-07
    78 OT SD       0.80E-01    3.0     0.00012375     -1636.6548933664  1.38E-04
    79 OT DIIS     0.80E-01    3.0     0.00042873     -1636.6530799977  1.81E-03
    80 OT DIIS     0.80E-01    3.1     0.00001200     -1636.6550716491 -1.99E-03
    81 OT DIIS     0.80E-01    3.0     0.00001180     -1636.6551177169 -4.61E-05
    82 OT DIIS     0.80E-01    3.0     0.00001183     -1636.6551381604 -2.04E-05
    83 OT DIIS     0.80E-01    3.0     0.00001178     -1636.6551599469 -2.18E-05
    84 OT SD       0.80E-01    3.0     0.00001178     -1636.6551741799 -1.42E-05
    85 OT SD       0.80E-01    3.0     0.00001181     -1636.6551876916 -1.35E-05
    86 OT SD       0.80E-01    3.0     0.00001202     -1636.6552011635 -1.35E-05
    87 OT SD       0.80E-01    3.1     0.00001384     -1636.6552141642 -1.30E-05
    88 OT SD       0.80E-01    3.0     0.00002588     -1636.6552222224 -8.06E-06
    89 OT SD       0.80E-01    3.0     0.00007577     -1636.6551780309  4.42E-05
    90 OT DIIS     0.80E-01    3.1     0.00024739     -1636.6545664565  6.12E-04
    91 OT DIIS     0.80E-01    3.1     0.00001456     -1636.6545324309  3.40E-05
    92 OT DIIS     0.80E-01    3.0     0.00001269     -1636.6550403198 -5.08E-04
    93 OT DIIS     0.80E-01    3.0     0.00001204     -1636.6550904522 -5.01E-05
    94 OT SD       0.80E-01    3.0     0.00001268     -1636.6554965963 -4.06E-04
    95 OT SD       0.80E-01    3.0     0.00001316     -1636.6555116748 -1.51E-05
    96 OT SD       0.80E-01    3.0     0.00001773     -1636.6555252634 -1.36E-05
    97 OT SD       0.80E-01    3.0     0.00004376     -1636.6555229025  2.36E-06
    98 OT SD       0.80E-01    3.0     0.00014537     -1636.6553294178  1.93E-04
    99 OT DIIS     0.80E-01    3.0     0.00050712     -1636.6527962078  2.53E-03
   100 OT DIIS     0.80E-01    3.0     0.00001429     -1636.6546211856 -1.82E-03
   101 OT SD       0.80E-01    3.0     0.00001360     -1636.6556493880 -1.03E-03
   102 OT SD       0.80E-01    3.0     0.00001790     -1636.6556643297 -1.49E-05
   103 OT SD       0.80E-01    3.0     0.00004346     -1636.6556634264  9.03E-07
   104 OT DIIS     0.80E-01    3.0     0.00014314     -1636.6554766419  1.87E-04
   105 OT DIIS     0.80E-01    3.0     0.00001329     -1636.6557145210 -2.38E-04
   106 OT SD       0.80E-01    3.0     0.00001327     -1636.6557242153 -9.69E-06
   107 OT SD       0.80E-01    3.1     0.00001440     -1636.6557407152 -1.65E-05
   108 OT SD       0.80E-01    3.0     0.00002298     -1636.6557539963 -1.33E-05
   109 OT SD       0.80E-01    3.0     0.00006320     -1636.6557318405  2.22E-05
   110 OT DIIS     0.80E-01    3.0     0.00020585     -1636.6553179855  4.14E-04
   111 OT SD       0.80E-01    3.0     0.00001313     -1636.6555507739 -2.33E-04
   112 OT SD       0.80E-01    3.0     0.00001529     -1636.6555656203 -1.48E-05
   113 OT SD       0.80E-01    3.0     0.00002948     -1636.6555740063 -8.39E-06
   114 OT SD       0.80E-01    3.0     0.00009025     -1636.6555095275  6.45E-05
   115 OT DIIS     0.80E-01    2.9     0.00030914     -1636.6545753895  9.34E-04
   116 OT DIIS     0.80E-01    3.0     0.00001373     -1636.6554499910 -8.75E-04
   117 OT SD       0.80E-01    3.0     0.00001280     -1636.6555603529 -1.10E-04
   118 OT SD       0.80E-01    3.0     0.00001450     -1636.6555753220 -1.50E-05
   119 OT SD       0.80E-01    3.0     0.00002636     -1636.6555853784 -1.01E-05
   120 OT SD       0.80E-01    3.0     0.00007725     -1636.6555415415  4.38E-05
   121 OT DIIS     0.80E-01    3.0     0.00025458     -1636.6548985418  6.43E-04
   122 OT SD       0.80E-01    3.0     0.00001328     -1636.6553869591 -4.88E-04
   123 OT SD       0.80E-01    3.0     0.00002094     -1636.6553985622 -1.16E-05
   124 OT SD       0.80E-01    3.0     0.00005978     -1636.6553788873  1.97E-05
   125 OT SD       0.80E-01    3.0     0.00020539     -1636.6549773717  4.02E-04
   126 OT DIIS     0.80E-01    3.0     0.00072580     -1636.6498015156  5.18E-03
   127 OT DIIS     0.80E-01    3.1     0.00001293     -1636.6553532792 -5.55E-03
   128 OT SD       0.80E-01    3.0     0.00001223     -1636.6554299451 -7.67E-05
   129 OT SD       0.80E-01    3.1     0.00001281     -1636.6554442357 -1.43E-05
   130 OT SD       0.80E-01    3.0     0.00001753     -1636.6554571123 -1.29E-05
   131 OT SD       0.80E-01    3.0     0.00004268     -1636.6554544749  2.64E-06
   132 OT DIIS     0.80E-01    3.0     0.00013558     -1636.6552825430  1.72E-04
   133 OT SD       0.80E-01    3.1     0.00001251     -1636.6551886156  9.39E-05
   134 OT DIIS     0.80E-01    3.0     0.00001443     -1636.6552022925 -1.37E-05
   135 OT DIIS     0.80E-01    3.0     0.00001306     -1636.6553578822 -1.56E-04
   136 OT SD       0.80E-01    3.0     0.00001266     -1636.6553601260 -2.24E-06
   137 OT SD       0.80E-01    3.0     0.00001382     -1636.6553743417 -1.42E-05
   138 OT SD       0.80E-01    3.0     0.00002183     -1636.6553853636 -1.10E-05
   139 OT SD       0.80E-01    3.0     0.00005811     -1636.6553664793  1.89E-05
   140 OT DIIS     0.80E-01    3.0     0.00018770     -1636.6550237921  3.43E-04
   141 OT DIIS     0.80E-01    3.0     0.00001217     -1636.6554102085 -3.86E-04
   142 OT DIIS     0.80E-01    3.0     0.00001221     -1636.6554180938 -7.89E-06
   143 OT SD       0.80E-01    3.0     0.00001217     -1636.6554218808 -3.79E-06
   144 OT SD       0.80E-01    3.0     0.00001228     -1636.6554362893 -1.44E-05
   145 OT SD       0.80E-01    3.1     0.00001303     -1636.6554505742 -1.43E-05
   146 OT SD       0.80E-01    3.1     0.00001873     -1636.6554630648 -1.25E-05
   147 OT SD       0.80E-01    3.1     0.00004760     -1636.6554559980  7.07E-06
   148 OT SD       0.80E-01    3.0     0.00015352     -1636.6552326185  2.23E-04
   149 OT DIIS     0.80E-01    3.0     0.00051860     -1636.6525368229  2.70E-03
   150 OT DIIS     0.80E-01    3.1     0.00002099     -1636.6543630406 -1.83E-03
   151 OT DIIS     0.80E-01    3.0     0.00001591     -1636.6549203703 -5.57E-04
   152 OT DIIS     0.80E-01    3.0     0.00001463     -1636.6550066672 -8.63E-05
   153 OT SD       0.80E-01    3.0     0.00001396     -1636.6556847596 -6.78E-04
   154 OT DIIS     0.80E-01    3.0     0.00001565     -1636.6557018436 -1.71E-05
   155 OT DIIS     0.80E-01    3.0     0.00001547     -1636.6557665603 -6.47E-05
   156 OT SD       0.80E-01    3.0     0.00001523     -1636.6557814045 -1.48E-05
   157 OT SD       0.80E-01    3.0     0.00001744     -1636.6558006865 -1.93E-05
   158 OT SD       0.80E-01    3.0     0.00003517     -1636.6558086867 -8.00E-06
   159 OT SD       0.80E-01    3.0     0.00010747     -1636.6557116737  9.70E-05
   160 OT DIIS     0.80E-01    3.0     0.00036278     -1636.6544111901  1.30E-03
   161 OT SD       0.80E-01    3.0     0.00001390     -1636.6558468145 -1.44E-03
   162 OT DIIS     0.80E-01    3.1     0.00001661     -1636.6558638145 -1.70E-05
   163 OT SD       0.80E-01    3.0     0.00001364     -1636.6558746612 -1.08E-05
   164 OT SD       0.80E-01    3.0     0.00001393     -1636.6558926608 -1.80E-05
   165 OT SD       0.80E-01    3.0     0.00001619     -1636.6559101055 -1.74E-05
   166 OT SD       0.80E-01    3.0     0.00003129     -1636.6559203622 -1.03E-05
   167 OT SD       0.80E-01    3.0     0.00009479     -1636.6558495556  7.08E-05
   168 OT DIIS     0.80E-01    3.0     0.00031868     -1636.6548471666  1.00E-03
   169 OT DIIS     0.80E-01    3.0     0.00001503     -1636.6551561093 -3.09E-04
   170 OT SD       0.80E-01    3.0     0.00001491     -1636.6551830388 -2.69E-05
   171 OT DIIS     0.80E-01    3.0     0.00002089     -1636.6551982929 -1.53E-05
   172 OT SD       0.80E-01    3.0     0.00001299     -1636.6555023594 -3.04E-04
   173 OT SD       0.80E-01    3.0     0.00001502     -1636.6555171229 -1.48E-05
   174 OT DIIS     0.80E-01    3.0     0.00002897     -1636.6555256382 -8.52E-06
   175 OT SD       0.80E-01    3.0     0.00001278     -1636.6555922039 -6.66E-05
   176 OT SD       0.80E-01    3.0     0.00001334     -1636.6556078111 -1.56E-05
   177 OT SD       0.80E-01    3.0     0.00001794     -1636.6556220192 -1.42E-05
   178 OT SD       0.80E-01    3.0     0.00004370     -1636.6556201844  1.83E-06
   179 OT DIIS     0.80E-01    3.0     0.00014174     -1636.6554349187  1.85E-04
   180 OT SD       0.80E-01    3.1     0.00001268     -1636.6554367798 -1.86E-06
   181 OT SD       0.80E-01    3.0     0.00001347     -1636.6554518559 -1.51E-05
   182 OT SD       0.80E-01    3.0     0.00002057     -1636.6554643625 -1.25E-05
   183 OT SD       0.80E-01    3.0     0.00005743     -1636.6554482145  1.61E-05
   184 OT DIIS     0.80E-01    3.0     0.00019706     -1636.6550812213  3.67E-04
   185 OT DIIS     0.80E-01    3.0     0.00001336     -1636.6553705972 -2.89E-04
   186 OT SD       0.80E-01    3.0     0.00001252     -1636.6555056976 -1.35E-04
   187 OT SD       0.80E-01    3.0     0.00001323     -1636.6555205845 -1.49E-05
   188 OT SD       0.80E-01    3.0     0.00001869     -1636.6555337101 -1.31E-05
   189 OT SD       0.80E-01    3.1     0.00004599     -1636.6555284839  5.23E-06
   190 OT DIIS     0.80E-01    3.1     0.00014328     -1636.6553322545  1.96E-04
   191 OT DIIS     0.80E-01    3.0     0.00001276     -1636.6552258483  1.06E-04
   192 OT DIIS     0.80E-01    3.0     0.00001404     -1636.6553427972 -1.17E-04
   193 OT DIIS     0.80E-01    3.0     0.00001368     -1636.6553958977 -5.31E-05
   194 OT SD       0.80E-01    3.0     0.00001284     -1636.6553941276  1.77E-06
   195 OT DIIS     0.80E-01    3.0     0.00001571     -1636.6554078245 -1.37E-05
   196 OT DIIS     0.80E-01    3.1     0.00001283     -1636.6554577974 -5.00E-05
   197 OT DIIS     0.80E-01    3.0     0.00001235     -1636.6554814416 -2.36E-05
   198 OT SD       0.80E-01    3.0     0.00001240     -1636.6554941784 -1.27E-05
   199 OT SD       0.80E-01    3.0     0.00001297     -1636.6555088441 -1.47E-05
   200 OT SD       0.80E-01    3.0     0.00001785     -1636.6555220734 -1.32E-05

  Leaving inner SCF loop after reaching   200 steps.


  Electronic density on regular grids:       -896.0000011580       -0.0000011580
  Core density on regular grids:              895.9999999261       -0.0000000739
  Total charge density on r-space grids:       -0.0000012319
  Total charge density g-space grids:          -0.0000012319

  Overlap energy of the core charge distribution:               0.00005123469939
  Self energy of the core charge distribution:              -3531.67332257831958
  Core Hamiltonian energy:                                   1018.18492904737627
  Hartree energy:                                            1267.48704474159535
  Exchange-correlation energy:                               -389.82256711498530
  Dispersion energy:                                           -0.83165740378886

  Total energy:                                             -1636.65552207342262

  outer SCF iter =    5 RMS gradient =   0.18E-04 energy =      -1636.6555220734

  ----------------------------------- OT ---------------------------------------
  Minimizer      : DIIS                : direct inversion
                                         in the iterative subspace
                                         using   7 DIIS vectors
                                         safer DIIS on
  Preconditioner : FULL_SINGLE_INVERSE : inversion of 
                                         H + eS - 2*(Sc)(c^T*H*c+const)(Sc)^T
  Precond_solver : DEFAULT
  stepsize       :    0.08000000                  energy_gap     :    0.08000000
  eps_taylor     :   0.10000E-15                  max_taylor     :             4
  ----------------------------------- OT ---------------------------------------

  Step     Update method      Time    Convergence         Total energy    Change
  ------------------------------------------------------------------------------
     1 OT DIIS     0.80E-01    8.1     0.00004533     -1636.6555179542  4.12E-06
     2 OT DIIS     0.80E-01    3.0     0.00015127     -1636.6553066358  2.11E-04
     3 OT DIIS     0.80E-01    3.0     0.00001540     -1636.6555563538 -2.50E-04
     4 OT DIIS     0.80E-01    3.1     0.00001251     -1636.6555611581 -4.80E-06
     5 OT SD       0.80E-01    3.0     0.00001250     -1636.6555614579 -3.00E-07
     6 OT SD       0.80E-01    3.0     0.00001274     -1636.6555765882 -1.51E-05
     7 OT SD       0.80E-01    3.0     0.00001454     -1636.6555913307 -1.47E-05
     8 OT SD       0.80E-01    3.0     0.00002731     -1636.6556007970 -9.47E-06
     9 OT SD       0.80E-01    3.0     0.00008366     -1636.6555478075  5.30E-05
    10 OT DIIS     0.80E-01    3.1     0.00028734     -1636.6547432526  8.05E-04
    11 OT DIIS     0.80E-01    3.1     0.00002791     -1636.6539614219  7.82E-04
    12 OT DIIS     0.80E-01    3.1     0.00002711     -1636.6541569731 -1.96E-04
    13 OT DIIS     0.80E-01    3.0     0.00001951     -1636.6546808856 -5.24E-04
    14 OT DIIS     0.80E-01    3.0     0.00001425     -1636.6557511704 -1.07E-03
    15 OT DIIS     0.80E-01    3.0     0.00001502     -1636.6559069196 -1.56E-04
    16 OT SD       0.80E-01    3.0     0.00001599     -1636.6560655050 -1.59E-04
    17 OT SD       0.80E-01    3.0     0.00002340     -1636.6560828050 -1.73E-05
    18 OT SD       0.80E-01    3.0     0.00006405     -1636.6560631998  1.96E-05
    19 OT DIIS     0.80E-01    3.0     0.00021499     -1636.6556222282  4.41E-04
    20 OT SD       0.80E-01    3.0     0.00001482     -1636.6555772866  4.49E-05
    21 OT SD       0.80E-01    3.0     0.00002614     -1636.6555870940 -9.81E-06
    22 OT SD       0.80E-01    3.0     0.00007260     -1636.6555492265  3.79E-05
    23 OT DIIS     0.80E-01    3.0     0.00023143     -1636.6550137481  5.35E-04
    24 OT DIIS     0.80E-01    3.0     0.00001538     -1636.6548504031  1.63E-04
    25 OT DIIS     0.80E-01    3.0     0.00001597     -1636.6549391556 -8.88E-05
    26 OT DIIS     0.80E-01    3.0     0.00001303     -1636.6556492311 -7.10E-04
    27 OT DIIS     0.80E-01    3.0     0.00001308     -1636.6556521302 -2.90E-06
    28 OT DIIS     0.80E-01    3.0     0.00001314     -1636.6556756027 -2.35E-05
    29 OT DIIS     0.80E-01    3.0     0.00001334     -1636.6557374832 -6.19E-05
    30 OT SD       0.80E-01    3.0     0.00001333     -1636.6557381292 -6.46E-07
    31 OT SD       0.80E-01    3.0     0.00001545     -1636.6557539803 -1.59E-05
    32 OT SD       0.80E-01    3.0     0.00002895     -1636.6557637297 -9.75E-06
    33 OT DIIS     0.80E-01    3.0     0.00008470     -1636.6557084195  5.53E-05
    34 OT SD       0.80E-01    3.0     0.00001378     -1636.6556568784  5.15E-05
    35 OT SD       0.80E-01    3.1     0.00002151     -1636.6556698641 -1.30E-05
    36 OT SD       0.80E-01    3.0     0.00006219     -1636.6556495516  2.03E-05
    37 OT SD       0.80E-01    3.0     0.00021834     -1636.6552014162  4.48E-04
    38 OT DIIS     0.80E-01    3.0     0.00078628     -1636.6491885750  6.01E-03
    39 OT SD       0.80E-01    3.0     0.00001417     -1636.6553147936 -6.13E-03
    40 OT SD       0.80E-01    3.0     0.00002401     -1636.6553247755 -9.98E-06
    41 OT SD       0.80E-01    3.0     0.00006577     -1636.6552952632  2.95E-05
    42 OT DIIS     0.80E-01    3.0     0.00020753     -1636.6548634817  4.32E-04
    43 OT DIIS     0.80E-01    3.1     0.00002049     -1636.6544631045  4.00E-04
    44 OT DIIS     0.80E-01    3.0     0.00001503     -1636.6555973653 -1.13E-03
    45 OT SD       0.80E-01    3.1     0.00001406     -1636.6557282283 -1.31E-04
    46 OT SD       0.80E-01    3.0     0.00001632     -1636.6557443111 -1.61E-05
    47 OT DIIS     0.80E-01    3.0     0.00003001     -1636.6557536254 -9.31E-06
    48 OT DIIS     0.80E-01    3.0     0.00001598     -1636.6559400704 -1.86E-04
    49 OT SD       0.80E-01    3.0     0.00001576     -1636.6562155686 -2.75E-04
    50 OT SD       0.80E-01    3.0     0.00001864     -1636.6562362524 -2.07E-05
    51 OT SD       0.80E-01    3.0     0.00003885     -1636.6562444607 -8.21E-06
    52 OT SD       0.80E-01    3.0     0.00012099     -1636.6561200343  1.24E-04
    53 OT DIIS     0.80E-01    3.0     0.00040966     -1636.6544564722  1.66E-03
    54 OT SD       0.80E-01    3.0     0.00001645     -1636.6560735888 -1.62E-03
    55 OT SD       0.80E-01    3.0     0.00002972     -1636.6560859985 -1.24E-05
    56 OT SD       0.80E-01    3.0     0.00008744     -1636.6560303565  5.56E-05
    57 OT DIIS     0.80E-01    3.0     0.00029580     -1636.6551787577  8.52E-04
    58 OT DIIS     0.80E-01    3.0     0.00001642     -1636.6552597331 -8.10E-05
    59 OT SD       0.80E-01    3.0     0.00001429     -1636.6558024831 -5.43E-04
    60 OT SD       0.80E-01    3.0     0.00001719     -1636.6558183234 -1.58E-05
    61 OT SD       0.80E-01    2.9     0.00003108     -1636.6558271928 -8.87E-06
    62 OT SD       0.80E-01    3.0     0.00008581     -1636.6557700822  5.71E-05
    63 OT DIIS     0.80E-01    3.0     0.00027580     -1636.6550125353  7.58E-04
    64 OT SD       0.80E-01    3.0     0.00001405     -1636.6554353590 -4.23E-04
    65 OT SD       0.80E-01    3.0     0.00002512     -1636.6554452741 -9.92E-06
    66 OT SD       0.80E-01    3.0     0.00007519     -1636.6554045777  4.07E-05
    67 OT DIIS     0.80E-01    3.0     0.00025605     -1636.6547659898  6.39E-04
    68 OT DIIS     0.80E-01    3.0     0.00002425     -1636.6542873629  4.79E-04
    69 OT DIIS     0.80E-01    3.0     0.00001497     -1636.6557349755 -1.45E-03
    70 OT SD       0.80E-01    3.0     0.00001456     -1636.6558676904 -1.33E-04
    71 OT SD       0.80E-01    3.0     0.00001745     -1636.6558850919 -1.74E-05
    72 OT SD       0.80E-01    3.0     0.00003563     -1636.6558920368 -6.94E-06
    73 OT SD       0.80E-01    3.0     0.00010741     -1636.6557937092  9.83E-05
    74 OT DIIS     0.80E-01    2.9     0.00035463     -1636.6545337679  1.26E-03
    75 OT SD       0.80E-01    3.0     0.00001738     -1636.6553062561 -7.72E-04
    76 OT SD       0.80E-01    3.0     0.00003109     -1636.6553150996 -8.84E-06
    77 OT SD       0.80E-01    3.0     0.00008831     -1636.6552502996  6.48E-05
    78 OT DIIS     0.80E-01    3.0     0.00028090     -1636.6544487309  8.02E-04
    79 OT DIIS     0.80E-01    3.0     0.00002147     -1636.6545162909 -6.76E-05
    80 OT DIIS     0.80E-01    3.0     0.00001647     -1636.6554498480 -9.34E-04
    81 OT DIIS     0.80E-01    3.0     0.00001609     -1636.6558106019 -3.61E-04
    82 OT SD       0.80E-01    3.0     0.00001570     -1636.6558955577 -8.50E-05
    83 OT SD       0.80E-01    3.0     0.00002140     -1636.6559123202 -1.68E-05
    84 OT DIIS     0.80E-01    3.0     0.00005116     -1636.6559057873  6.53E-06
    85 OT SD       0.80E-01    3.0     0.00001946     -1636.6562583489 -3.53E-04
    86 OT SD       0.80E-01    3.0     0.00003736     -1636.6562708136 -1.25E-05
    87 OT SD       0.80E-01    2.9     0.00011295     -1636.6561658088  1.05E-04
    88 OT DIIS     0.80E-01    3.0     0.00037693     -1636.6547545354  1.41E-03
    89 OT DIIS     0.80E-01    3.0     0.00001946     -1636.6547783189 -2.38E-05
    90 OT DIIS     0.80E-01    3.0     0.00001894     -1636.6547959204 -1.76E-05
    91 OT SD       0.80E-01    3.0     0.00001426     -1636.6558042213 -1.01E-03
    92 OT SD       0.80E-01    2.9     0.00001751     -1636.6558203189 -1.61E-05
    93 OT SD       0.80E-01    2.9     0.00003505     -1636.6558266750 -6.36E-06
    94 OT DIIS     0.80E-01    3.0     0.00010450     -1636.6557349055  9.18E-05
    95 OT SD       0.80E-01    3.0     0.00001318     -1636.6557744569 -3.96E-05
    96 OT SD       0.80E-01    2.9     0.00001337     -1636.6557913205 -1.69E-05
    97 OT SD       0.80E-01    2.9     0.00001498     -1636.6558078535 -1.65E-05
    98 OT SD       0.80E-01    3.0     0.00002769     -1636.6558191677 -1.13E-05
    99 OT SD       0.80E-01    3.0     0.00008720     -1636.6557635187  5.56E-05
   100 OT DIIS     0.80E-01    3.0     0.00030909     -1636.6548483422  9.15E-04
   101 OT SD       0.80E-01    2.9     0.00001623     -1636.6549439822 -9.56E-05
   102 OT DIIS     0.80E-01    3.0     0.00002332     -1636.6549602412 -1.63E-05
   103 OT DIIS     0.80E-01    3.0     0.00001489     -1636.6549967622 -3.65E-05
   104 OT DIIS     0.80E-01    3.0     0.00001517     -1636.6554666539 -4.70E-04
   105 OT SD       0.80E-01    3.0     0.00001371     -1636.6557041134 -2.37E-04
   106 OT SD       0.80E-01    3.0     0.00001825     -1636.6557187561 -1.46E-05
   107 OT SD       0.80E-01    2.9     0.00004294     -1636.6557180784  6.78E-07
   108 OT DIIS     0.80E-01    3.0     0.00013710     -1636.6555460469  1.72E-04
   109 OT SD       0.80E-01    3.0     0.00001410     -1636.6554455564  1.00E-04
   110 OT SD       0.80E-01    3.0     0.00002471     -1636.6554555412 -9.98E-06
   111 OT SD       0.80E-01    3.0     0.00007052     -1636.6554207106  3.48E-05
   112 OT DIIS     0.80E-01    3.0     0.00023077     -1636.6548941102  5.27E-04
   113 OT DIIS     0.80E-01    3.0     0.00002302     -1636.6544086852  4.85E-04
   114 OT DIIS     0.80E-01    3.0     0.00001563     -1636.6555592369 -1.15E-03
   115 OT SD       0.80E-01    3.0     0.00001381     -1636.6557692819 -2.10E-04
   116 OT SD       0.80E-01    3.0     0.00001550     -1636.6557859314 -1.66E-05
   117 OT DIIS     0.80E-01    3.0     0.00002740     -1636.6557973536 -1.14E-05
   118 OT DIIS     0.80E-01    3.0     0.00001650     -1636.6559998191 -2.02E-04
   119 OT SD       0.80E-01    3.0     0.00001609     -1636.6561969159 -1.97E-04
   120 OT SD       0.80E-01    3.0     0.00002082     -1636.6562163913 -1.95E-05
   121 OT SD       0.80E-01    3.0     0.00004816     -1636.6562164304 -3.91E-08
   122 OT SD       0.80E-01    3.0     0.00015652     -1636.6559964902  2.20E-04
   123 OT DIIS     0.80E-01    3.0     0.00054815     -1636.6530617354  2.93E-03
   124 OT SD       0.80E-01    3.0     0.00001568     -1636.6561755383 -3.11E-03
   125 OT SD       0.80E-01    3.0     0.00002355     -1636.6561926509 -1.71E-05
   126 OT SD       0.80E-01    3.0     0.00006226     -1636.6561760761  1.66E-05
   127 OT DIIS     0.80E-01    3.0     0.00020317     -1636.6557805571  3.96E-04
   128 OT SD       0.80E-01    3.0     0.00001587     -1636.6559722368 -1.92E-04
   129 OT SD       0.80E-01    3.0     0.00002673     -1636.6559855400 -1.33E-05
   130 OT SD       0.80E-01    2.9     0.00007700     -1636.6559468247  3.87E-05
   131 OT SD       0.80E-01    3.0     0.00026275     -1636.6552830868  6.64E-04
   132 OT DIIS     0.80E-01    2.9     0.00092576     -1636.6468527258  8.43E-03
   133 OT DIIS     0.80E-01    3.0     0.00001472     -1636.6556032739 -8.75E-03
   134 OT SD       0.80E-01    3.0     0.00001430     -1636.6557856389 -1.82E-04
   135 OT SD       0.80E-01    3.0     0.00001998     -1636.6558005937 -1.50E-05
   136 OT SD       0.80E-01    3.0     0.00004976     -1636.6557945969  6.00E-06
   137 OT DIIS     0.80E-01    3.0     0.00016475     -1636.6555443200  2.50E-04
   138 OT SD       0.80E-01    3.0     0.00001348     -1636.6557687070 -2.24E-04
   139 OT SD       0.80E-01    2.9     0.00001506     -1636.6557850379 -1.63E-05
   140 OT SD       0.80E-01    3.0     0.00002519     -1636.6557972331 -1.22E-05
   141 OT SD       0.80E-01    3.0     0.00007012     -1636.6557657299  3.15E-05
   142 OT DIIS     0.80E-01    3.0     0.00022960     -1636.6552490651  5.17E-04
   143 OT SD       0.80E-01    3.0     0.00001302     -1636.6556205022 -3.71E-04
   144 OT SD       0.80E-01    3.0     0.00001367     -1636.6556365058 -1.60E-05
   145 OT SD       0.80E-01    3.0     0.00001956     -1636.6556504138 -1.39E-05
   146 OT SD       0.80E-01    3.0     0.00005088     -1636.6556420412  8.37E-06
   147 OT DIIS     0.80E-01    3.0     0.00016888     -1636.6553741388  2.68E-04
   148 OT DIIS     0.80E-01    3.0     0.00001296     -1636.6556431640 -2.69E-04
   149 OT SD       0.80E-01    3.0     0.00001291     -1636.6556671773 -2.40E-05
   150 OT SD       0.80E-01    3.1     0.00001328     -1636.6556832158 -1.60E-05
   151 OT SD       0.80E-01    2.9     0.00001632     -1636.6556984032 -1.52E-05
   152 OT SD       0.80E-01    2.9     0.00003508     -1636.6557038726 -5.47E-06
   153 OT DIIS     0.80E-01    3.0     0.00011097     -1636.6555981461  1.06E-04
   154 OT SD       0.80E-01    3.0     0.00001274     -1636.6555065377  9.16E-05
   155 OT SD       0.80E-01    3.0     0.00001295     -1636.6555221420 -1.56E-05
   156 OT SD       0.80E-01    3.0     0.00001539     -1636.6555368927 -1.48E-05
   157 OT SD       0.80E-01    3.0     0.00003162     -1636.6555438261 -6.93E-06
   158 OT SD       0.80E-01    3.0     0.00009888     -1636.6554623601  8.15E-05
   159 OT DIIS     0.80E-01    3.0     0.00033726     -1636.6543407248  1.12E-03
   160 OT SD       0.80E-01    3.0     0.00001265     -1636.6555050978 -1.16E-03
   161 OT SD       0.80E-01    2.9     0.00001368     -1636.6555200707 -1.50E-05
   162 OT SD       0.80E-01    3.0     0.00002220     -1636.6555319555 -1.19E-05
   163 OT SD       0.80E-01    3.0     0.00006379     -1636.6555079924  2.40E-05
   164 OT DIIS     0.80E-01    2.9     0.00021664     -1636.6550564051  4.52E-04
   165 OT SD       0.80E-01    3.0     0.00001253     -1636.6555093555 -4.53E-04
   166 OT SD       0.80E-01    3.0     0.00001263     -1636.6555245845 -1.52E-05
   167 OT SD       0.80E-01    3.0     0.00001348     -1636.6555395900 -1.50E-05
   168 OT SD       0.80E-01    3.0     0.00001968     -1636.6555524549 -1.29E-05
   169 OT SD       0.80E-01    3.0     0.00004946     -1636.6555439694  8.49E-06
   170 OT DIIS     0.80E-01    3.0     0.00015661     -1636.6553098584  2.34E-04
   171 OT SD       0.80E-01    3.0     0.00001302     -1636.6553573373 -4.75E-05
   172 OT DIIS     0.80E-01    2.9     0.00001619     -1636.6553713700 -1.40E-05
   173 OT SD       0.80E-01    3.0     0.00001250     -1636.6554049161 -3.35E-05
   174 OT SD       0.80E-01    3.0     0.00001261     -1636.6554200272 -1.51E-05
   175 OT DIIS     0.80E-01    3.0     0.00001440     -1636.6554345683 -1.45E-05
   176 OT DIIS     0.80E-01    3.0     0.00001259     -1636.6554423660 -7.80E-06
   177 OT DIIS     0.80E-01    3.0     0.00001265     -1636.6554681230 -2.58E-05
   178 OT DIIS     0.80E-01    3.0     0.00001229     -1636.6554792249 -1.11E-05
   179 OT SD       0.80E-01    2.9     0.00001235     -1636.6555087877 -2.96E-05
   180 OT SD       0.80E-01    3.0     0.00001279     -1636.6555234552 -1.47E-05
   181 OT SD       0.80E-01    2.9     0.00001690     -1636.6555369890 -1.35E-05
   182 OT SD       0.80E-01    3.0     0.00004230     -1636.6555357868  1.20E-06
   183 OT SD       0.80E-01    2.9     0.00014436     -1636.6553477283  1.88E-04
   184 OT DIIS     0.80E-01    2.9     0.00051558     -1636.6527626220  2.59E-03
   185 OT DIIS     0.80E-01    2.9     0.00001554     -1636.6548335007 -2.07E-03
   186 OT DIIS     0.80E-01    3.0     0.00001532     -1636.6550353678 -2.02E-04
   187 OT DIIS     0.80E-01    2.9     0.00001417     -1636.6551372783 -1.02E-04
   188 OT DIIS     0.80E-01    3.0     0.00001392     -1636.6558127708 -6.75E-04
   189 OT DIIS     0.80E-01    3.0     0.00001444     -1636.6558583138 -4.55E-05
   190 OT DIIS     0.80E-01    2.9     0.00001500     -1636.6559667289 -1.08E-04
   191 OT SD       0.80E-01    3.0     0.00001471     -1636.6559977776 -3.10E-05
   192 OT SD       0.80E-01    3.0     0.00001616     -1636.6560163306 -1.86E-05
   193 OT SD       0.80E-01    2.9     0.00002614     -1636.6560296010 -1.33E-05
   194 OT SD       0.80E-01    2.9     0.00006746     -1636.6560024096  2.72E-05
   195 OT DIIS     0.80E-01    2.9     0.00021166     -1636.6555633320  4.39E-04
   196 OT DIIS     0.80E-01    2.9     0.00001467     -1636.6559741140 -4.11E-04
   197 OT SD       0.80E-01    2.9     0.00001402     -1636.6560389967 -6.49E-05
   198 OT SD       0.80E-01    2.9     0.00001572     -1636.6560569974 -1.80E-05
   199 OT SD       0.80E-01    2.9     0.00002664     -1636.6560702428 -1.32E-05
   200 OT SD       0.80E-01    2.9     0.00007202     -1636.6560363814  3.39E-05

  Leaving inner SCF loop after reaching   200 steps.


  Electronic density on regular grids:       -896.0000010886       -0.0000010886
  Core density on regular grids:              895.9999999261       -0.0000000739
  Total charge density on r-space grids:       -0.0000011625
  Total charge density g-space grids:          -0.0000011625

  Overlap energy of the core charge distribution:               0.00005123469939
  Self energy of the core charge distribution:              -3531.67332257831958
  Core Hamiltonian energy:                                   1018.18758024431713
  Hartree energy:                                            1267.48444028206336
  Exchange-correlation energy:                               -389.82312816038876
  Dispersion energy:                                           -0.83165740378886

  Total energy:                                             -1636.65603638141715

  outer SCF iter =    6 RMS gradient =   0.72E-04 energy =      -1636.6560363814

  ----------------------------------- OT ---------------------------------------
  Minimizer      : DIIS                : direct inversion
                                         in the iterative subspace
                                         using   7 DIIS vectors
                                         safer DIIS on
  Preconditioner : FULL_SINGLE_INVERSE : inversion of 
                                         H + eS - 2*(Sc)(c^T*H*c+const)(Sc)^T
  Precond_solver : DEFAULT
  stepsize       :    0.08000000                  energy_gap     :    0.08000000
  eps_taylor     :   0.10000E-15                  max_taylor     :             4
  ----------------------------------- OT ---------------------------------------

  Step     Update method      Time    Convergence         Total energy    Change
  ------------------------------------------------------------------------------
     1 OT DIIS     0.80E-01    7.9     0.00022332     -1636.6555333714  5.03E-04
     2 OT DIIS     0.80E-01    2.9     0.00071123     -1636.6502706754  5.26E-03
     3 OT DIIS     0.80E-01    2.9     0.00004455     -1636.6561173943 -5.85E-03
     4 OT DIIS     0.80E-01    2.9     0.00001454     -1636.6561428952 -2.55E-05
     5 OT SD       0.80E-01    3.0     0.00001418     -1636.6561470232 -4.13E-06
     6 OT SD       0.80E-01    3.0     0.00001434     -1636.6561665931 -1.96E-05
     7 OT SD       0.80E-01    2.9     0.00001517     -1636.6561861319 -1.95E-05
     8 OT SD       0.80E-01    2.9     0.00002162     -1636.6562034922 -1.74E-05
     9 OT SD       0.80E-01    2.9     0.00005615     -1636.6561941349  9.36E-06
    10 OT SD       0.80E-01    2.9     0.00018779     -1636.6558653051  3.29E-04
    11 OT DIIS     0.80E-01    2.9     0.00065560     -1636.6516282798  4.24E-03
    12 OT DIIS     0.80E-01    3.0     0.00002171     -1636.6548252045 -3.20E-03
    13 OT DIIS     0.80E-01    3.0     0.00002164     -1636.6548365451 -1.13E-05
    14 OT DIIS     0.80E-01    2.9     0.00001933     -1636.6549830453 -1.47E-04
    15 OT SD       0.80E-01    2.9     0.00001577     -1636.6560518686 -1.07E-03
    16 OT SD       0.80E-01    3.0     0.00002814     -1636.6560644412 -1.26E-05
    17 OT DIIS     0.80E-01    3.0     0.00008590     -1636.6560118037  5.26E-05
    18 OT SD       0.80E-01    2.9     0.00001454     -1636.6560518267 -4.00E-05
    19 OT SD       0.80E-01    2.9     0.00001924     -1636.6560683439 -1.65E-05
    20 OT DIIS     0.80E-01    2.9     0.00004348     -1636.6560688887 -5.45E-07
    21 OT SD       0.80E-01    2.9     0.00001393     -1636.6561213417 -5.25E-05
    22 OT SD       0.80E-01    2.9     0.00001580     -1636.6561391710 -1.78E-05
    23 OT SD       0.80E-01    2.9     0.00003042     -1636.6561504247 -1.13E-05
    24 OT DIIS     0.80E-01    2.9     0.00009691     -1636.6560784081  7.20E-05
    25 OT SD       0.80E-01    2.9     0.00001379     -1636.6560752327  3.18E-06
    26 OT SD       0.80E-01    3.0     0.00001488     -1636.6560931623 -1.79E-05
    27 OT SD       0.80E-01    2.9     0.00002419     -1636.6561075979 -1.44E-05
    28 OT SD       0.80E-01    2.9     0.00007113     -1636.6560779861  2.96E-05
    29 OT DIIS     0.80E-01    2.9     0.00024784     -1636.6554942853  5.84E-04
    30 OT DIIS     0.80E-01    3.0     0.00001385     -1636.6558092428 -3.15E-04
    31 OT SD       0.80E-01    2.9     0.00001374     -1636.6558114627 -2.22E-06
    32 OT SD       0.80E-01    2.9     0.00001755     -1636.6558268165 -1.54E-05
    33 OT SD       0.80E-01    2.9     0.00003985     -1636.6558290184 -2.20E-06
    34 OT DIIS     0.80E-01    3.0     0.00012638     -1636.6556854584  1.44E-04
    35 OT DIIS     0.80E-01    2.9     0.00001431     -1636.6556653575  2.01E-05
    36 OT SD       0.80E-01    2.9     0.00001326     -1636.6558299614 -1.65E-04
    37 OT SD       0.80E-01    2.9     0.00001483     -1636.6558460170 -1.61E-05
    38 OT SD       0.80E-01    2.9     0.00002549     -1636.6558576920 -1.17E-05
    39 OT SD       0.80E-01    2.9     0.00007266     -1636.6558223024  3.54E-05
    40 OT DIIS     0.80E-01    2.9     0.00024161     -1636.6552533289  5.69E-04
    41 OT SD       0.80E-01    2.9     0.00001405     -1636.6555486311 -2.95E-04
    42 OT SD       0.80E-01    2.9     0.00002546     -1636.6555593927 -1.08E-05
    43 OT SD       0.80E-01    2.9     0.00008140     -1636.6555119576  4.74E-05
    44 OT DIIS     0.80E-01    2.9     0.00029310     -1636.6546949996  8.17E-04
    45 OT DIIS     0.80E-01    2.9     0.00001923     -1636.6546951640 -1.64E-07
    46 OT DIIS     0.80E-01    3.0     0.00001483     -1636.6557925063 -1.10E-03
    47 OT SD       0.80E-01    2.9     0.00001428     -1636.6559573773 -1.65E-04
    48 OT SD       0.80E-01    2.9     0.00001688     -1636.6559743138 -1.69E-05
    49 OT SD       0.80E-01    2.9     0.00003298     -1636.6559827856 -8.47E-06
    50 OT DIIS     0.80E-01    3.0     0.00009934     -1636.6559024419  8.03E-05
    51 OT SD       0.80E-01    2.9     0.00001641     -1636.6564600673 -5.58E-04
    52 OT SD       0.80E-01    2.9     0.00001953     -1636.6564821982 -2.21E-05
    53 OT SD       0.80E-01    2.9     0.00004033     -1636.6564907480 -8.55E-06
    54 OT SD       0.80E-01    2.9     0.00012351     -1636.6563609908  1.30E-04
    55 OT DIIS     0.80E-01    2.9     0.00041562     -1636.6546497311  1.71E-03
    56 OT DIIS     0.80E-01    2.9     0.00001826     -1636.6553935791 -7.44E-04
    57 OT SD       0.80E-01    2.9     0.00001694     -1636.6561956463 -8.02E-04
    58 OT SD       0.80E-01    2.9     0.00003150     -1636.6562068327 -1.12E-05
    59 OT SD       0.80E-01    2.9     0.00009096     -1636.6561431015  6.37E-05
    60 OT DIIS     0.80E-01    2.9     0.00029645     -1636.6552673598  8.76E-04
    61 OT SD       0.80E-01    2.9     0.00001521     -1636.6553155073 -4.81E-05
    62 OT SD       0.80E-01    2.9     0.00002918     -1636.6553250220 -9.51E-06
    63 OT SD       0.80E-01    2.9     0.00009145     -1636.6552588596  6.62E-05
    64 OT DIIS     0.80E-01    2.9     0.00031650     -1636.6542810403  9.78E-04
    65 OT DIIS     0.80E-01    2.9     0.00002062     -1636.6545798438 -2.99E-04
    66 OT DIIS     0.80E-01    2.9     0.00001594     -1636.6554541619 -8.74E-04
    67 OT DIIS     0.80E-01    2.9     0.00001473     -1636.6558177340 -3.64E-04
    68 OT SD       0.80E-01    2.9     0.00001479     -1636.6559584401 -1.41E-04
    69 OT SD       0.80E-01    2.9     0.00001743     -1636.6559763929 -1.80E-05
    70 OT DIIS     0.80E-01    2.9     0.00003656     -1636.6559832745 -6.88E-06
    71 OT SD       0.80E-01    2.9     0.00001650     -1636.6562012610 -2.18E-04
    72 OT SD       0.80E-01    2.9     0.00002550     -1636.6562182390 -1.70E-05
    73 OT SD       0.80E-01    2.9     0.00006990     -1636.6561909965  2.72E-05
    74 OT SD       0.80E-01    2.9     0.00022909     -1636.6556807748  5.10E-04
    75 OT DIIS     0.80E-01    2.9     0.00077581     -1636.6496308490  6.05E-03
    76 OT DIIS     0.80E-01    2.9     0.00001643     -1636.6556051206 -5.97E-03
    77 OT SD       0.80E-01    3.0     0.00001511     -1636.6560693005 -4.64E-04
    78 OT SD       0.80E-01    2.9     0.00002095     -1636.6560853302 -1.60E-05
    79 OT SD       0.80E-01    2.9     0.00004889     -1636.6560811733  4.16E-06
    80 OT SD       0.80E-01    2.9     0.00015127     -1636.6558672949  2.14E-04
    81 OT DIIS     0.80E-01    2.9     0.00050211     -1636.6533305063  2.54E-03
    82 OT SD       0.80E-01    2.9     0.00001573     -1636.6556159925 -2.29E-03
    83 OT SD       0.80E-01    3.0     0.00003242     -1636.6556229953 -7.00E-06
    84 OT SD       0.80E-01    2.9     0.00010146     -1636.6555366878  8.63E-05
    85 OT DIIS     0.80E-01    2.9     0.00034547     -1636.6543574927  1.18E-03
    86 OT DIIS     0.80E-01    2.9     0.00002163     -1636.6546641881 -3.07E-04
    87 OT DIIS     0.80E-01    2.9     0.00001500     -1636.6559096180 -1.25E-03
    88 OT SD       0.80E-01    2.9     0.00001497     -1636.6560901672 -1.81E-04
    89 OT SD       0.80E-01    2.9     0.00001727     -1636.6561091660 -1.90E-05
    90 OT SD       0.80E-01    2.9     0.00003274     -1636.6561197677 -1.06E-05
    91 OT SD       0.80E-01    2.9     0.00009664     -1636.6560458137  7.40E-05
    92 OT DIIS     0.80E-01    2.9     0.00032005     -1636.6550295939  1.02E-03
    93 OT SD       0.80E-01    2.9     0.00001964     -1636.6559732832 -9.44E-04
    94 OT DIIS     0.80E-01    3.0     0.00004323     -1636.6559762616 -2.98E-06
    95 OT SD       0.80E-01    2.9     0.00001428     -1636.6560799363 -1.04E-04
    96 OT SD       0.80E-01    2.9     0.00001677     -1636.6560978823 -1.79E-05
    97 OT DIIS     0.80E-01    3.0     0.00003413     -1636.6561071832 -9.30E-06
    98 OT DIIS     0.80E-01    2.9     0.00001399     -1636.6560969592  1.02E-05
    99 OT DIIS     0.80E-01    2.9     0.00001393     -1636.6560969937 -3.45E-08
   100 OT DIIS     0.80E-01    2.9     0.00001393     -1636.6560972414 -2.48E-07
   101 OT SD       0.80E-01    3.0     0.00001396     -1636.6561082512 -1.10E-05
   102 OT SD       0.80E-01    2.9     0.00001411     -1636.6561272052 -1.90E-05
   103 OT SD       0.80E-01    3.0     0.00001537     -1636.6561459448 -1.87E-05
   104 OT SD       0.80E-01    2.9     0.00002612     -1636.6561604525 -1.45E-05
   105 OT SD       0.80E-01    2.9     0.00007905     -1636.6561202150  4.02E-05
   106 OT DIIS     0.80E-01    2.9     0.00027626     -1636.6553893974  7.31E-04
   107 OT DIIS     0.80E-01    2.9     0.00001457     -1636.6554699491 -8.06E-05
   108 OT DIIS     0.80E-01    3.0     0.00001484     -1636.6555534022 -8.35E-05
   109 OT DIIS     0.80E-01    2.9     0.00001497     -1636.6556007959 -4.74E-05
   110 OT SD       0.80E-01    2.9     0.00001368     -1636.6557157977 -1.15E-04
   111 OT SD       0.80E-01    2.9     0.00001613     -1636.6557317218 -1.59E-05
   112 OT DIIS     0.80E-01    2.9     0.00003170     -1636.6557398448 -8.12E-06
   113 OT DIIS     0.80E-01    3.0     0.00001327     -1636.6558176143 -7.78E-05
   114 OT SD       0.80E-01    2.9     0.00001327     -1636.6558186777 -1.06E-06
   115 OT SD       0.80E-01    2.9     0.00001401     -1636.6558353526 -1.67E-05
   116 OT SD       0.80E-01    2.9     0.00001976     -1636.6558499975 -1.46E-05
   117 OT SD       0.80E-01    3.0     0.00004858     -1636.6558441631  5.83E-06
   118 OT DIIS     0.80E-01    2.9     0.00015235     -1636.6556236515  2.21E-04
   119 OT SD       0.80E-01    2.9     0.00001316     -1636.6557924326 -1.69E-04
   120 OT SD       0.80E-01    2.9     0.00001321     -1636.6558092810 -1.68E-05
   121 OT SD       0.80E-01    2.9     0.00001373     -1636.6558259856 -1.67E-05
   122 OT SD       0.80E-01    2.9     0.00001886     -1636.6558410538 -1.51E-05
   123 OT SD       0.80E-01    2.9     0.00004953     -1636.6558355623  5.49E-06
   124 OT DIIS     0.80E-01    2.9     0.00017148     -1636.6555666150  2.69E-04
   125 OT SD       0.80E-01    2.9     0.00001327     -1636.6557452962 -1.79E-04
   126 OT SD       0.80E-01    2.9     0.00001455     -1636.6557614140 -1.61E-05
   127 OT SD       0.80E-01    2.9     0.00002356     -1636.6557739624 -1.25E-05
   128 OT SD       0.80E-01    2.9     0.00006489     -1636.6557490893  2.49E-05
   129 OT DIIS     0.80E-01    2.9     0.00021211     -1636.6553096728  4.39E-04
   130 OT DIIS     0.80E-01    2.9     0.00001320     -1636.6557467121 -4.37E-04
   131 OT SD       0.80E-01    2.9     0.00001306     -1636.6557819052 -3.52E-05
   132 OT SD       0.80E-01    2.9     0.00001332     -1636.6557983753 -1.65E-05
   133 OT SD       0.80E-01    2.9     0.00001557     -1636.6558141901 -1.58E-05
   134 OT SD       0.80E-01    2.9     0.00002993     -1636.6558232317 -9.04E-06
   135 OT SD       0.80E-01    2.9     0.00008796     -1636.6557616355  6.16E-05
   136 OT DIIS     0.80E-01    2.9     0.00028655     -1636.6549389492  8.23E-04
   137 OT SD       0.80E-01    2.9     0.00001343     -1636.6555981797 -6.59E-04
   138 OT SD       0.80E-01    2.9     0.00001750     -1636.6556126947 -1.45E-05
   139 OT SD       0.80E-01    2.9     0.00004226     -1636.6556123786  3.16E-07
   140 OT SD       0.80E-01    2.9     0.00014116     -1636.6554325175  1.80E-04
   141 OT DIIS     0.80E-01    2.9     0.00049688     -1636.6530146377  2.42E-03
   142 OT DIIS     0.80E-01    2.9     0.00001292     -1636.6556574403 -2.64E-03
   143 OT DIIS     0.80E-01    2.9     0.00001279     -1636.6556870321 -2.96E-05
   144 OT SD       0.80E-01    2.9     0.00001275     -1636.6557207516 -3.37E-05
   145 OT SD       0.80E-01    2.9     0.00001304     -1636.6557364603 -1.57E-05
   146 OT SD       0.80E-01    2.9     0.00001603     -1636.6557513650 -1.49E-05
   147 OT SD       0.80E-01    2.9     0.00003648     -1636.6557557354 -4.37E-06
   148 OT SD       0.80E-01    3.0     0.00012193     -1636.6556268972  1.29E-04
   149 OT DIIS     0.80E-01    3.0     0.00043221     -1636.6538080159  1.82E-03
   150 OT DIIS     0.80E-01    2.9     0.00001299     -1636.6553990422 -1.59E-03
   151 OT DIIS     0.80E-01    2.9     0.00001318     -1636.6554478934 -4.89E-05
   152 OT DIIS     0.80E-01    2.9     0.00001296     -1636.6554939468 -4.61E-05
   153 OT DIIS     0.80E-01    2.9     0.00001285     -1636.6556795673 -1.86E-04
   154 OT DIIS     0.80E-01    2.9     0.00001305     -1636.6557077814 -2.82E-05
   155 OT SD       0.80E-01    2.9     0.00001295     -1636.6557747382 -6.70E-05
   156 OT SD       0.80E-01    2.9     0.00001343     -1636.6557907540 -1.60E-05
   157 OT SD       0.80E-01    2.9     0.00001736     -1636.6558055755 -1.48E-05
   158 OT SD       0.80E-01    2.9     0.00004037     -1636.6558070362 -1.46E-06
   159 OT SD       0.80E-01    3.0     0.00013109     -1636.6556529127  1.54E-04
   160 OT DIIS     0.80E-01    2.9     0.00045281     -1636.6536291744  2.02E-03
   161 OT DIIS     0.80E-01    2.9     0.00001343     -1636.6554906121 -1.86E-03
   162 OT DIIS     0.80E-01    2.9     0.00001290     -1636.6555249053 -3.43E-05
   163 OT DIIS     0.80E-01    2.9     0.00001294     -1636.6555316400 -6.73E-06
   164 OT SD       0.80E-01    3.0     0.00001274     -1636.6556196699 -8.80E-05
   165 OT DIIS     0.80E-01    2.9     0.00001285     -1636.6556353803 -1.57E-05
   166 OT DIIS     0.80E-01    2.9     0.00001284     -1636.6556899611 -5.46E-05
   167 OT SD       0.80E-01    2.9     0.00001277     -1636.6557106429 -2.07E-05
   168 OT SD       0.80E-01    2.9     0.00001308     -1636.6557263878 -1.57E-05
   169 OT SD       0.80E-01    2.9     0.00001617     -1636.6557412661 -1.49E-05
   170 OT SD       0.80E-01    2.9     0.00003654     -1636.6557454676 -4.20E-06
   171 OT DIIS     0.80E-01    2.9     0.00011970     -1636.6556203202  1.25E-04
   172 OT DIIS     0.80E-01    2.9     0.00001277     -1636.6555406043  7.97E-05
   173 OT DIIS     0.80E-01    2.9     0.00001300     -1636.6555578286 -1.72E-05
   174 OT SD       0.80E-01    2.9     0.00001325     -1636.6556018907 -4.41E-05
   175 OT SD       0.80E-01    2.9     0.00001526     -1636.6556173067 -1.54E-05
   176 OT SD       0.80E-01    2.9     0.00002846     -1636.6556266233 -9.32E-06
   177 OT SD       0.80E-01    2.9     0.00008402     -1636.6555722206  5.44E-05
   178 OT DIIS     0.80E-01    2.9     0.00028014     -1636.6547980435  7.74E-04
   179 OT DIIS     0.80E-01    2.9     0.00001341     -1636.6551959561 -3.98E-04
   180 OT DIIS     0.80E-01    2.9     0.00001291     -1636.6556966056 -5.01E-04
   181 OT SD       0.80E-01    2.9     0.00001291     -1636.6557495121 -5.29E-05
   182 OT SD       0.80E-01    2.9     0.00001330     -1636.6557655527 -1.60E-05
   183 OT DIIS     0.80E-01    2.9     0.00001694     -1636.6557805140 -1.50E-05
   184 OT DIIS     0.80E-01    2.9     0.00001316     -1636.6557841642 -3.65E-06
   185 OT DIIS     0.80E-01    2.9     0.00001368     -1636.6558012173 -1.71E-05
   186 OT SD       0.80E-01    2.9     0.00001478     -1636.6558104210 -9.20E-06
   187 OT SD       0.80E-01    2.9     0.00002323     -1636.6558242280 -1.38E-05
   188 OT SD       0.80E-01    2.9     0.00006420     -1636.6558012684  2.30E-05
   189 OT DIIS     0.80E-01    2.9     0.00021121     -1636.6553670041  4.34E-04
   190 OT SD       0.80E-01    3.0     0.00001428     -1636.6558066957 -4.40E-04
   191 OT SD       0.80E-01    2.9     0.00002384     -1636.6558190053 -1.23E-05
   192 OT DIIS     0.80E-01    2.9     0.00006936     -1636.6557887770  3.02E-05
   193 OT DIIS     0.80E-01    2.9     0.00001310     -1636.6557728970  1.59E-05
   194 OT SD       0.80E-01    2.9     0.00001284     -1636.6557823040 -9.41E-06
   195 OT SD       0.80E-01    2.9     0.00001339     -1636.6557980661 -1.58E-05
   196 OT SD       0.80E-01    2.9     0.00001840     -1636.6558123127 -1.42E-05
   197 OT SD       0.80E-01    2.9     0.00004739     -1636.6558076624  4.65E-06
   198 OT DIIS     0.80E-01    2.9     0.00016019     -1636.6555710276  2.37E-04
   199 OT SD       0.80E-01    2.9     0.00001257     -1636.6555799420 -8.91E-06
   200 OT SD       0.80E-01    3.0     0.00001341     -1636.6555948111 -1.49E-05

  Leaving inner SCF loop after reaching   200 steps.


  Electronic density on regular grids:       -896.0000011604       -0.0000011604
  Core density on regular grids:              895.9999999261       -0.0000000739
  Total charge density on r-space grids:       -0.0000012343
  Total charge density g-space grids:          -0.0000012343

  Overlap energy of the core charge distribution:               0.00005123469939
  Self energy of the core charge distribution:              -3531.67332257831958
  Core Hamiltonian energy:                                   1018.18589914177437
  Hartree energy:                                            1267.48611053892046
  Exchange-correlation energy:                               -389.82267574439169
  Dispersion energy:                                           -0.83165740378886

  Total energy:                                             -1636.65559481110608

  outer SCF iter =    7 RMS gradient =   0.13E-04 energy =      -1636.6555948111

  ----------------------------------- OT ---------------------------------------
  Minimizer      : DIIS                : direct inversion
                                         in the iterative subspace
                                         using   7 DIIS vectors
                                         safer DIIS on
  Preconditioner : FULL_SINGLE_INVERSE : inversion of 
                                         H + eS - 2*(Sc)(c^T*H*c+const)(Sc)^T
  Precond_solver : DEFAULT
  stepsize       :    0.08000000                  energy_gap     :    0.08000000
  eps_taylor     :   0.10000E-15                  max_taylor     :             4
  ----------------------------------- OT ---------------------------------------

  Step     Update method      Time    Convergence         Total energy    Change
  ------------------------------------------------------------------------------
     1 OT DIIS     0.80E-01    7.9     0.00002085     -1636.6556070672 -1.23E-05
     2 OT DIIS     0.80E-01    2.9     0.00005875     -1636.6555891928  1.79E-05
     3 OT DIIS     0.80E-01    2.9     0.00001295     -1636.6556285096 -3.93E-05
     4 OT DIIS     0.80E-01    2.8     0.00001246     -1636.6556325431 -4.03E-06
     5 OT SD       0.80E-01    2.9     0.00001246     -1636.6556338433 -1.30E-06
     6 OT SD       0.80E-01    2.9     0.00001250     -1636.6556489647 -1.51E-05
     7 OT SD       0.80E-01    2.9     0.00001275     -1636.6556640732 -1.51E-05
     8 OT SD       0.80E-01    2.9     0.00001488     -1636.6556786400 -1.46E-05
     9 OT SD       0.80E-01    2.9     0.00002964     -1636.6556866374 -8.00E-06
    10 OT SD       0.80E-01    3.0     0.00009277     -1636.6556173855  6.93E-05
    11 OT DIIS     0.80E-01    2.9     0.00031968     -1636.6546181229  9.99E-04
    12 OT DIIS     0.80E-01    2.9     0.00001603     -1636.6548670369 -2.49E-04
    13 OT DIIS     0.80E-01    2.9     0.00001283     -1636.6554614868 -5.94E-04
    14 OT DIIS     0.80E-01    3.0     0.00001253     -1636.6554766100 -1.51E-05
    15 OT SD       0.80E-01    2.9     0.00001291     -1636.6557609501 -2.84E-04
    16 OT SD       0.80E-01    2.9     0.00001306     -1636.6557769001 -1.60E-05
    17 OT SD       0.80E-01    2.9     0.00001452     -1636.6557924061 -1.55E-05
    18 OT SD       0.80E-01    2.9     0.00002567     -1636.6558035149 -1.11E-05
    19 OT SD       0.80E-01    2.9     0.00007867     -1636.6557602432  4.33E-05
    20 OT DIIS     0.80E-01    2.9     0.00027613     -1636.6550288692  7.31E-04
    21 OT DIIS     0.80E-01    2.9     0.00001301     -1636.6553113376 -2.82E-04
    22 OT SD       0.80E-01    2.9     0.00001268     -1636.6554725248 -1.61E-04
    23 OT SD       0.80E-01    2.9     0.00001438     -1636.6554868220 -1.43E-05
    24 OT SD       0.80E-01    2.9     0.00002555     -1636.6554964251 -9.60E-06
    25 OT DIIS     0.80E-01    2.9     0.00007333     -1636.6554575683  3.89E-05
    26 OT DIIS     0.80E-01    2.9     0.00001291     -1636.6554415095  1.61E-05
    27 OT DIIS     0.80E-01    2.9     0.00001240     -1636.6555787733 -1.37E-04
    28 OT SD       0.80E-01    2.9     0.00001240     -1636.6555967820 -1.80E-05
    29 OT SD       0.80E-01    2.9     0.00001256     -1636.6556116654 -1.49E-05
    30 OT SD       0.80E-01    2.9     0.00001387     -1636.6556262500 -1.46E-05
    31 OT SD       0.80E-01    2.9     0.00002461     -1636.6556368412 -1.06E-05
    32 OT SD       0.80E-01    2.9     0.00007696     -1636.6555956920  4.11E-05
    33 OT DIIS     0.80E-01    2.9     0.00027516     -1636.6548758690  7.20E-04
    34 OT DIIS     0.80E-01    3.0     0.00001329     -1636.6551859951 -3.10E-04
    35 OT DIIS     0.80E-01    2.9     0.00001395     -1636.6552953323 -1.09E-04
    36 OT DIIS     0.80E-01    2.9     0.00001326     -1636.6554515925 -1.56E-04
    37 OT SD       0.80E-01    2.9     0.00001309     -1636.6557983057 -3.47E-04
    38 OT SD       0.80E-01    3.0     0.00001411     -1636.6558138328 -1.55E-05
    39 OT DIIS     0.80E-01    2.9     0.00002011     -1636.6558272220 -1.34E-05
    40 OT SD       0.80E-01    2.9     0.00001371     -1636.6558279908 -7.69E-07
    41 OT SD       0.80E-01    2.9     0.00002082     -1636.6558414016 -1.34E-05
    42 OT SD       0.80E-01    2.9     0.00005833     -1636.6558253482  1.61E-05
    43 OT DIIS     0.80E-01    2.9     0.00019960     -1636.6554477267  3.78E-04
    44 OT DIIS     0.80E-01    3.0     0.00001314     -1636.6554559303 -8.20E-06
    45 OT SD       0.80E-01    2.9     0.00001366     -1636.6556157909 -1.60E-04
    46 OT SD       0.80E-01    2.9     0.00002273     -1636.6556268368 -1.10E-05
    47 OT SD       0.80E-01    2.9     0.00006681     -1636.6555988085  2.80E-05
    48 OT DIIS     0.80E-01    2.9     0.00023149     -1636.6550867415  5.12E-04
    49 OT DIIS     0.80E-01    2.9     0.00001404     -1636.6552402306 -1.53E-04
    50 OT SD       0.80E-01    2.9     0.00001242     -1636.6555568324 -3.17E-04
    51 OT SD       0.80E-01    2.9     0.00001461     -1636.6555705997 -1.38E-05
    52 OT SD       0.80E-01    2.9     0.00003011     -1636.6555775026 -6.90E-06
    53 OT DIIS     0.80E-01    2.9     0.00009701     -1636.6555002794  7.72E-05
    54 OT SD       0.80E-01    2.9     0.00001220     -1636.6555279975 -2.77E-05
    55 OT SD       0.80E-01    2.9     0.00001281     -1636.6555421414 -1.41E-05
    56 OT SD       0.80E-01    2.9     0.00001808     -1636.6555546573 -1.25E-05
    57 OT SD       0.80E-01    2.9     0.00004671     -1636.6555485091  6.15E-06
    58 OT DIIS     0.80E-01    2.9     0.00015492     -1636.6553236073  2.25E-04
    59 OT SD       0.80E-01    2.9     0.00001214     -1636.6554599434 -1.36E-04
    60 OT SD       0.80E-01    2.9     0.00001243     -1636.6554740887 -1.41E-05
    61 OT SD       0.80E-01    2.9     0.00001497     -1636.6554874739 -1.34E-05
    62 OT SD       0.80E-01    2.9     0.00003072     -1636.6554934651 -5.99E-06
    63 OT DIIS     0.80E-01    2.9     0.00009469     -1636.6554182930  7.52E-05
    64 OT DIIS     0.80E-01    2.9     0.00001218     -1636.6554822272 -6.39E-05
    65 OT SD       0.80E-01    3.0     0.00001210     -1636.6555075675 -2.53E-05
    66 OT SD       0.80E-01    2.9     0.00001234     -1636.6555217249 -1.42E-05
    67 OT SD       0.80E-01    2.9     0.00001468     -1636.6555352751 -1.36E-05
    68 OT SD       0.80E-01    3.0     0.00003085     -1636.6555414813 -6.21E-06
    69 OT SD       0.80E-01    2.9     0.00009899     -1636.6554595583  8.19E-05
    70 OT DIIS     0.80E-01    2.9     0.00034372     -1636.6543028338  1.16E-03
    71 OT DIIS     0.80E-01    3.0     0.00001296     -1636.6551485376 -8.46E-04
    72 OT SD       0.80E-01    2.9     0.00001323     -1636.6553089000 -1.60E-04
    73 OT DIIS     0.80E-01    2.9     0.00001788     -1636.6553222376 -1.33E-05
    74 OT SD       0.80E-01    2.9     0.00001245     -1636.6556536306 -3.31E-04
    75 OT DIIS     0.80E-01    2.9     0.00001330     -1636.6556681420 -1.45E-05
    76 OT SD       0.80E-01    2.9     0.00001260     -1636.6557085777 -4.04E-05
    77 OT SD       0.80E-01    2.9     0.00001348     -1636.6557234523 -1.49E-05
    78 OT SD       0.80E-01    2.9     0.00001983     -1636.6557360791 -1.26E-05
    79 OT SD       0.80E-01    2.9     0.00004899     -1636.6557274651  8.61E-06
    80 OT DIIS     0.80E-01    2.9     0.00014888     -1636.6555111817  2.16E-04
    81 OT DIIS     0.80E-01    2.9     0.00001331     -1636.6553219664  1.89E-04
    82 OT SD       0.80E-01    2.9     0.00001255     -1636.6555421876 -2.20E-04
    83 OT SD       0.80E-01    2.9     0.00001443     -1636.6555558628 -1.37E-05
    84 OT SD       0.80E-01    3.0     0.00002572     -1636.6555648839 -9.02E-06
    85 OT SD       0.80E-01    2.9     0.00007554     -1636.6555237762  4.11E-05
    86 OT DIIS     0.80E-01    2.9     0.00026133     -1636.6548695995  6.54E-04
    87 OT SD       0.80E-01    2.9     0.00001219     -1636.6554843874 -6.15E-04
    88 OT SD       0.80E-01    2.9     0.00001344     -1636.6554981017 -1.37E-05
    89 OT SD       0.80E-01    2.9     0.00002256     -1636.6555084189 -1.03E-05
    90 OT SD       0.80E-01    2.9     0.00006321     -1636.6554827737  2.56E-05
    91 OT DIIS     0.80E-01    2.9     0.00020435     -1636.6550689191  4.14E-04
    92 OT SD       0.80E-01    3.0     0.00001203     -1636.6554729767 -4.04E-04
    93 OT SD       0.80E-01    3.0     0.00001212     -1636.6554870100 -1.40E-05
    94 OT SD       0.80E-01    2.9     0.00001309     -1636.6555008031 -1.38E-05
    95 OT SD       0.80E-01    2.9     0.00002112     -1636.6555118681 -1.11E-05
    96 OT SD       0.80E-01    2.9     0.00006140     -1636.6554900133  2.19E-05
    97 OT DIIS     0.80E-01    2.9     0.00021258     -1636.6550597157  4.30E-04
    98 OT DIIS     0.80E-01    2.9     0.00001285     -1636.6551561062 -9.64E-05
    99 OT DIIS     0.80E-01    2.9     0.00001282     -1636.6551791485 -2.30E-05
   100 OT DIIS     0.80E-01    2.9     0.00001310     -1636.6554953908 -3.16E-04
   101 OT SD       0.80E-01    2.9     0.00001304     -1636.6558004744 -3.05E-04
   102 OT SD       0.80E-01    2.9     0.00001502     -1636.6558154308 -1.50E-05
   103 OT DIIS     0.80E-01    2.9     0.00002725     -1636.6558247354 -9.30E-06
   104 OT SD       0.80E-01    3.0     0.00001489     -1636.6558301788 -5.44E-06
   105 OT SD       0.80E-01    3.0     0.00002792     -1636.6558397698 -9.59E-06
   106 OT SD       0.80E-01    2.9     0.00008554     -1636.6557838130  5.60E-05
   107 OT DIIS     0.80E-01    2.9     0.00029360     -1636.6549427182  8.41E-04
   108 OT DIIS     0.80E-01    2.9     0.00001321     -1636.6553936031 -4.51E-04
   109 OT SD       0.80E-01    2.9     0.00001347     -1636.6554843545 -9.08E-05
   110 OT SD       0.80E-01    2.9     0.00002303     -1636.6554942828 -9.93E-06
   111 OT SD       0.80E-01    2.9     0.00006759     -1636.6554638583  3.04E-05
   112 OT DIIS     0.80E-01    2.9     0.00023116     -1636.6549480437  5.16E-04
   113 OT DIIS     0.80E-01    2.9     0.00001257     -1636.6553693881 -4.21E-04
   114 OT SD       0.80E-01    2.9     0.00001199     -1636.6554739192 -1.05E-04
   115 OT SD       0.80E-01    2.9     0.00001267     -1636.6554875309 -1.36E-05
   116 OT SD       0.80E-01    2.9     0.00001849     -1636.6554993489 -1.18E-05
   117 OT SD       0.80E-01    3.0     0.00004960     -1636.6554900385  9.31E-06
   118 OT DIIS     0.80E-01    2.9     0.00016798     -1636.6552252593  2.65E-04
   119 OT DIIS     0.80E-01    2.9     0.00001220     -1636.6552069708  1.83E-05
   120 OT DIIS     0.80E-01    2.9     0.00001222     -1636.6552291909 -2.22E-05
   121 OT DIIS     0.80E-01    3.0     0.00001294     -1636.6553149039 -8.57E-05
   122 OT SD       0.80E-01    3.0     0.00001218     -1636.6555792693 -2.64E-04
   123 OT SD       0.80E-01    3.0     0.00001256     -1636.6555933302 -1.41E-05
   124 OT SD       0.80E-01    3.0     0.00001504     -1636.6556067122 -1.34E-05
   125 OT SD       0.80E-01    2.9     0.00002920     -1636.6556135872 -6.87E-06
   126 OT SD       0.80E-01    2.9     0.00008516     -1636.6555543295  5.93E-05
   127 OT DIIS     0.80E-01    2.9     0.00027616     -1636.6547878642  7.66E-04
   128 OT SD       0.80E-01    2.9     0.00001256     -1636.6552770202 -4.89E-04
   129 OT SD       0.80E-01    2.9     0.00001649     -1636.6552895621 -1.25E-05
   130 OT SD       0.80E-01    3.0     0.00003896     -1636.6552891371  4.25E-07
   131 OT SD       0.80E-01    2.9     0.00012533     -1636.6551457613  1.43E-04
   132 OT DIIS     0.80E-01    2.9     0.00042991     -1636.6533176639  1.83E-03
   133 OT DIIS     0.80E-01    3.0     0.00001194     -1636.6552878442 -1.97E-03
   134 OT DIIS     0.80E-01    3.0     0.00001179     -1636.6553361140 -4.83E-05
   135 OT DIIS     0.80E-01    2.9     0.00001182     -1636.6553492015 -1.31E-05
   136 OT DIIS     0.80E-01    3.0     0.00001177     -1636.6553644875 -1.53E-05
   137 OT SD       0.80E-01    2.9     0.00001177     -1636.6553860833 -2.16E-05
   138 OT SD       0.80E-01    2.9     0.00001180     -1636.6553995910 -1.35E-05
   139 OT SD       0.80E-01    2.9     0.00001195     -1636.6554130782 -1.35E-05
   140 OT SD       0.80E-01    2.9     0.00001339     -1636.6554262130 -1.31E-05
   141 OT SD       0.80E-01    2.9     0.00002396     -1636.6554353326 -9.12E-06
   142 OT SD       0.80E-01    2.9     0.00007066     -1636.6553995408  3.58E-05
   143 OT DIIS     0.80E-01    2.9     0.00023556     -1636.6548528701  5.47E-04
   144 OT DIIS     0.80E-01    2.9     0.00001521     -1636.6547213903  1.31E-04
   145 OT DIIS     0.80E-01    2.9     0.00001365     -1636.6550262564 -3.05E-04
   146 OT DIIS     0.80E-01    2.9     0.00001308     -1636.6550448226 -1.86E-05
   147 OT DIIS     0.80E-01    2.9     0.00001238     -1636.6556186595 -5.74E-04
   148 OT DIIS     0.80E-01    2.9     0.00001260     -1636.6556755181 -5.69E-05
   149 OT DIIS     0.80E-01    2.9     0.00001289     -1636.6557642435 -8.87E-05
   150 OT SD       0.80E-01    2.9     0.00001273     -1636.6557845591 -2.03E-05
   151 OT SD       0.80E-01    3.0     0.00001304     -1636.6557997742 -1.52E-05
   152 OT SD       0.80E-01    2.9     0.00001612     -1636.6558138114 -1.40E-05
   153 OT SD       0.80E-01    3.0     0.00003264     -1636.6558193758 -5.56E-06
   154 OT DIIS     0.80E-01    2.9     0.00009529     -1636.6557416264  7.77E-05
   155 OT DIIS     0.80E-01    2.9     0.00001288     -1636.6557458430 -4.22E-06
   156 OT SD       0.80E-01    2.9     0.00001275     -1636.6557889383 -4.31E-05
   157 OT SD       0.80E-01    2.9     0.00001526     -1636.6558031750 -1.42E-05
   158 OT SD       0.80E-01    2.9     0.00003063     -1636.6558101275 -6.95E-06
   159 OT SD       0.80E-01    2.9     0.00009135     -1636.6557406210  6.95E-05
   160 OT DIIS     0.80E-01    2.9     0.00029771     -1636.6548480475  8.93E-04
   161 OT SD       0.80E-01    2.9     0.00001238     -1636.6554067788 -5.59E-04
   162 OT SD       0.80E-01    2.9     0.00001369     -1636.6554207474 -1.40E-05
   163 OT SD       0.80E-01    2.9     0.00002500     -1636.6554301121 -9.36E-06
   164 OT SD       0.80E-01    2.9     0.00007751     -1636.6553860923  4.40E-05
   165 OT DIIS     0.80E-01    2.9     0.00027071     -1636.6546782582  7.08E-04
   166 OT DIIS     0.80E-01    2.9     0.00001239     -1636.6554169735 -7.39E-04
   167 OT DIIS     0.80E-01    2.9     0.00001200     -1636.6554775809 -6.06E-05
   168 OT DIIS     0.80E-01    2.9     0.00001200     -1636.6554915516 -1.40E-05
   169 OT DIIS     0.80E-01    2.9     0.00001194     -1636.6555038996 -1.23E-05
   170 OT DIIS     0.80E-01    2.9     0.00001194     -1636.6555155850 -1.17E-05
   171 OT DIIS     0.80E-01    2.9     0.00001194     -1636.6555161662 -5.81E-07
   172 OT SD       0.80E-01    2.9     0.00001194     -1636.6555180288 -1.86E-06
   173 OT DIIS     0.80E-01    3.0     0.00001196     -1636.6555319263 -1.39E-05
   174 OT SD       0.80E-01    2.9     0.00001197     -1636.6555355517 -3.63E-06
   175 OT SD       0.80E-01    2.9     0.00001226     -1636.6555493948 -1.38E-05
   176 OT SD       0.80E-01    2.9     0.00001508     -1636.6555624895 -1.31E-05
   177 OT SD       0.80E-01    2.9     0.00003370     -1636.6555665208 -4.03E-06
   178 OT SD       0.80E-01    2.9     0.00010985     -1636.6554616237  1.05E-04
   179 OT DIIS     0.80E-01    2.9     0.00038172     -1636.6540297405  1.43E-03
   180 OT DIIS     0.80E-01    2.9     0.00001263     -1636.6551650042 -1.14E-03
   181 OT DIIS     0.80E-01    2.9     0.00001260     -1636.6552958201 -1.31E-04
   182 OT DIIS     0.80E-01    2.9     0.00001251     -1636.6552957309  8.92E-08
   183 OT DIIS     0.80E-01    2.9     0.00001258     -1636.6557465181 -4.51E-04
   184 OT DIIS     0.80E-01    2.9     0.00001249     -1636.6557638797 -1.74E-05
   185 OT DIIS     0.80E-01    2.9     0.00001264     -1636.6558287041 -6.48E-05
   186 OT DIIS     0.80E-01    2.9     0.00001259     -1636.6558358932 -7.19E-06
   187 OT SD       0.80E-01    3.0     0.00001257     -1636.6558466691 -1.08E-05
   188 OT SD       0.80E-01    3.0     0.00001292     -1636.6558616566 -1.50E-05
   189 OT SD       0.80E-01    2.9     0.00001525     -1636.6558759470 -1.43E-05
   190 OT SD       0.80E-01    2.9     0.00002860     -1636.6558841448 -8.20E-06
   191 OT DIIS     0.80E-01    2.9     0.00008165     -1636.6558315802  5.26E-05
   192 OT DIIS     0.80E-01    2.9     0.00001299     -1636.6557722709  5.93E-05
   193 OT SD       0.80E-01    2.9     0.00001273     -1636.6558113900 -3.91E-05
   194 OT SD       0.80E-01    3.0     0.00001562     -1636.6558253219 -1.39E-05
   195 OT SD       0.80E-01    3.0     0.00003250     -1636.6558307621 -5.44E-06
   196 OT DIIS     0.80E-01    2.9     0.00009616     -1636.6557503464  8.04E-05
   197 OT SD       0.80E-01    2.9     0.00001243     -1636.6557513203 -9.74E-07
   198 OT SD       0.80E-01    3.0     0.00001385     -1636.6557655574 -1.42E-05
   199 OT SD       0.80E-01    2.9     0.00002491     -1636.6557755265 -9.97E-06
   200 OT SD       0.80E-01    2.9     0.00007585     -1636.6557343756  4.12E-05

  Leaving inner SCF loop after reaching   200 steps.


  Electronic density on regular grids:       -896.0000011472       -0.0000011472
  Core density on regular grids:              895.9999999261       -0.0000000739
  Total charge density on r-space grids:       -0.0000012211
  Total charge density g-space grids:          -0.0000012211

  Overlap energy of the core charge distribution:               0.00005123469939
  Self energy of the core charge distribution:              -3531.67332257831958
  Core Hamiltonian energy:                                   1018.18675104290242
  Hartree energy:                                            1267.48533368933795
  Exchange-correlation energy:                               -389.82289036039379
  Dispersion energy:                                           -0.83165740378886

  Total energy:                                             -1636.65573437556259

  outer SCF iter =    8 RMS gradient =   0.76E-04 energy =      -1636.6557343756

  ----------------------------------- OT ---------------------------------------
  Minimizer      : DIIS                : direct inversion
                                         in the iterative subspace
                                         using   7 DIIS vectors
                                         safer DIIS on
  Preconditioner : FULL_SINGLE_INVERSE : inversion of 
                                         H + eS - 2*(Sc)(c^T*H*c+const)(Sc)^T
  Precond_solver : DEFAULT
  stepsize       :    0.08000000                  energy_gap     :    0.08000000
  eps_taylor     :   0.10000E-15                  max_taylor     :             4
  ----------------------------------- OT ---------------------------------------

  Step     Update method      Time    Convergence         Total energy    Change
  ------------------------------------------------------------------------------
     1 OT DIIS     0.80E-01    7.8     0.00026194     -1636.6550703380  6.64E-04
     2 OT DIIS     0.80E-01    2.9     0.00092188     -1636.6466787935  8.39E-03
     3 OT DIIS     0.80E-01    3.0     0.00003983     -1636.6558118995 -9.13E-03
     4 OT DIIS     0.80E-01    2.9     0.00001265     -1636.6558318258 -1.99E-05
     5 OT SD       0.80E-01    2.9     0.00001241     -1636.6558359737 -4.15E-06
     6 OT SD       0.80E-01    3.0     0.00001248     -1636.6558509407 -1.50E-05
     7 OT SD       0.80E-01    2.9     0.00001299     -1636.6558658454 -1.49E-05
     8 OT SD       0.80E-01    2.9     0.00001739     -1636.6558794690 -1.36E-05
     9 OT SD       0.80E-01    2.9     0.00004255     -1636.6558779153  1.55E-06
    10 OT SD       0.80E-01    2.9     0.00013902     -1636.6557000223  1.78E-04
    11 OT DIIS     0.80E-01    3.0     0.00047533     -1636.6534481998  2.25E-03
    12 OT DIIS     0.80E-01    3.0     0.00001673     -1636.6548741794 -1.43E-03
    13 OT DIIS     0.80E-01    2.9     0.00001515     -1636.6550441329 -1.70E-04
    14 OT DIIS     0.80E-01    3.0     0.00001352     -1636.6555118482 -4.68E-04
    15 OT DIIS     0.80E-01    2.9     0.00001395     -1636.6556847003 -1.73E-04
    16 OT DIIS     0.80E-01    2.9     0.00001342     -1636.6556934506 -8.75E-06
    17 OT SD       0.80E-01    2.9     0.00001360     -1636.6558322967 -1.39E-04
    18 OT SD       0.80E-01    2.9     0.00001769     -1636.6558466392 -1.43E-05
    19 OT SD       0.80E-01    3.0     0.00004089     -1636.6558461563  4.83E-07
    20 OT SD       0.80E-01    3.0     0.00012538     -1636.6556998510  1.46E-04
    21 OT DIIS     0.80E-01    3.0     0.00040750     -1636.6540077160  1.69E-03
    22 OT SD       0.80E-01    3.0     0.00001285     -1636.6558035042 -1.80E-03
    23 OT SD       0.80E-01    2.9     0.00001629     -1636.6558173610 -1.39E-05
    24 OT SD       0.80E-01    3.0     0.00003649     -1636.6558202747 -2.91E-06
    25 OT DIIS     0.80E-01    2.9     0.00011371     -1636.6557042135  1.16E-04
    26 OT DIIS     0.80E-01    2.9     0.00001268     -1636.6556208400  8.34E-05
    27 OT SD       0.80E-01    2.9     0.00001258     -1636.6556661734 -4.53E-05
    28 OT SD       0.80E-01    2.9     0.00001418     -1636.6556801088 -1.39E-05
    29 OT SD       0.80E-01    2.9     0.00002345     -1636.6556903633 -1.03E-05
    30 OT SD       0.80E-01    2.9     0.00006317     -1636.6556652262  2.51E-05
    31 OT DIIS     0.80E-01    2.9     0.00020465     -1636.6552567044  4.09E-04
    32 OT SD       0.80E-01    3.0     0.00001225     -1636.6556528163 -3.96E-04
    33 OT SD       0.80E-01    2.9     0.00001285     -1636.6556670863 -1.43E-05
    34 OT SD       0.80E-01    3.0     0.00001765     -1636.6556798322 -1.27E-05
    35 OT SD       0.80E-01    2.9     0.00004233     -1636.6556771510  2.68E-06
    36 OT DIIS     0.80E-01    2.9     0.00013144     -1636.6555141545  1.63E-04
    37 OT SD       0.80E-01    2.9     0.00001217     -1636.6556204466 -1.06E-04
    38 OT SD       0.80E-01    2.9     0.00001223     -1636.6556348334 -1.44E-05
    39 OT SD       0.80E-01    2.9     0.00001291     -1636.6556490410 -1.42E-05
    40 OT SD       0.80E-01    3.0     0.00001903     -1636.6556612880 -1.22E-05
    41 OT DIIS     0.80E-01    2.9     0.00005157     -1636.6556505190  1.08E-05
    42 OT SD       0.80E-01    3.0     0.00001218     -1636.6556373389  1.32E-05
    43 OT SD       0.80E-01    2.9     0.00001248     -1636.6556516441 -1.43E-05
    44 OT SD       0.80E-01    2.9     0.00001509     -1636.6556652170 -1.36E-05
    45 OT SD       0.80E-01    3.0     0.00003142     -1636.6556709810 -5.76E-06
    46 OT DIIS     0.80E-01    2.9     0.00009639     -1636.6555918948  7.91E-05
    47 OT DIIS     0.80E-01    2.9     0.00001216     -1636.6555647109  2.72E-05
    48 OT DIIS     0.80E-01    2.9     0.00001214     -1636.6555664334 -1.72E-06
    49 OT SD       0.80E-01    2.9     0.00001214     -1636.6555704132 -3.98E-06
    50 OT SD       0.80E-01    2.9     0.00001219     -1636.6555847438 -1.43E-05
    51 OT SD       0.80E-01    2.9     0.00001283     -1636.6555988866 -1.41E-05
    52 OT DIIS     0.80E-01    2.9     0.00001894     -1636.6556110971 -1.22E-05
    53 OT SD       0.80E-01    2.9     0.00001213     -1636.6556370921 -2.60E-05
    54 OT SD       0.80E-01    2.9     0.00001218     -1636.6556514114 -1.43E-05
    55 OT SD       0.80E-01    3.0     0.00001257     -1636.6556656592 -1.42E-05
    56 OT SD       0.80E-01    3.0     0.00001575     -1636.6556789904 -1.33E-05
    57 OT SD       0.80E-01    3.0     0.00003382     -1636.6556829596 -3.97E-06
    58 OT SD       0.80E-01    2.9     0.00010144     -1636.6555915440  9.14E-05
    59 OT DIIS     0.80E-01    3.0     0.00032558     -1636.6545080615  1.08E-03
    60 OT DIIS     0.80E-01    3.0     0.00001382     -1636.6551225561 -6.14E-04
    61 OT DIIS     0.80E-01    2.9     0.00001316     -1636.6553172026 -1.95E-04
    62 OT DIIS     0.80E-01    2.9     0.00001276     -1636.6553908681 -7.37E-05
    63 OT DIIS     0.80E-01    2.9     0.00001304     -1636.6558321272 -4.41E-04
    64 OT DIIS     0.80E-01    3.0     0.00001329     -1636.6558371833 -5.06E-06
    65 OT SD       0.80E-01    2.9     0.00001339     -1636.6558596113 -2.24E-05
    66 OT SD       0.80E-01    3.0     0.00001440     -1636.6558756957 -1.61E-05
    67 OT SD       0.80E-01    2.9     0.00002181     -1636.6558888075 -1.31E-05
    68 OT SD       0.80E-01    2.9     0.00005803     -1636.6558725649  1.62E-05
    69 OT DIIS     0.80E-01    2.9     0.00019154     -1636.6555209908  3.52E-04
    70 OT DIIS     0.80E-01    3.0     0.00001352     -1636.6558554589 -3.34E-04
    71 OT DIIS     0.80E-01    2.9     0.00001378     -1636.6558721767 -1.67E-05
    72 OT SD       0.80E-01    2.9     0.00001339     -1636.6559022111 -3.00E-05
    73 OT SD       0.80E-01    2.9     0.00001823     -1636.6559162995 -1.41E-05
    74 OT SD       0.80E-01    2.9     0.00004441     -1636.6559135854  2.71E-06
    75 OT SD       0.80E-01    3.0     0.00014186     -1636.6557258801  1.88E-04
    76 OT DIIS     0.80E-01    2.9     0.00047576     -1636.6534493418  2.28E-03
    77 OT DIIS     0.80E-01    2.9     0.00001543     -1636.6551477558 -1.70E-03
    78 OT SD       0.80E-01    2.9     0.00001280     -1636.6557943595 -6.47E-04
    79 OT SD       0.80E-01    2.9     0.00001377     -1636.6558097150 -1.54E-05
    80 OT SD       0.80E-01    2.9     0.00002181     -1636.6558220959 -1.24E-05
    81 OT DIIS     0.80E-01    2.9     0.00006065     -1636.6558018769  2.02E-05
    82 OT DIIS     0.80E-01    2.9     0.00001268     -1636.6558543353 -5.25E-05
    83 OT SD       0.80E-01    2.9     0.00001264     -1636.6558606353 -6.30E-06
    84 OT DIIS     0.80E-01    2.9     0.00001284     -1636.6558761124 -1.55E-05
    85 OT DIIS     0.80E-01    3.0     0.00001267     -1636.6558773184 -1.21E-06
    86 OT DIIS     0.80E-01    2.9     0.00001266     -1636.6558908698 -1.36E-05
    87 OT SD       0.80E-01    2.9     0.00001265     -1636.6559003818 -9.51E-06
    88 OT SD       0.80E-01    2.9     0.00001283     -1636.6559159145 -1.55E-05
    89 OT SD       0.80E-01    2.9     0.00001472     -1636.6559310062 -1.51E-05
    90 OT SD       0.80E-01    2.9     0.00002960     -1636.6559397128 -8.71E-06
    91 OT SD       0.80E-01    3.0     0.00009689     -1636.6558652839  7.44E-05
    92 OT DIIS     0.80E-01    2.9     0.00034631     -1636.6547115473  1.15E-03
    93 OT DIIS     0.80E-01    2.9     0.00001327     -1636.6553924401 -6.81E-04
    94 OT DIIS     0.80E-01    2.9     0.00001348     -1636.6554543170 -6.19E-05
    95 OT DIIS     0.80E-01    2.9     0.00001321     -1636.6555054812 -5.12E-05
    96 OT DIIS     0.80E-01    2.9     0.00001291     -1636.6557768818 -2.71E-04
    97 OT DIIS     0.80E-01    2.9     0.00001290     -1636.6559055140 -1.29E-04
    98 OT SD       0.80E-01    2.9     0.00001323     -1636.6559844469 -7.89E-05
    99 OT SD       0.80E-01    2.9     0.00001522     -1636.6560002417 -1.58E-05
   100 OT SD       0.80E-01    2.9     0.00002974     -1636.6560094588 -9.22E-06
   101 OT SD       0.80E-01    2.9     0.00009290     -1636.6559413319  6.81E-05
   102 OT DIIS     0.80E-01    2.9     0.00032054     -1636.6549379725  1.00E-03
   103 OT SD       0.80E-01    2.9     0.00001476     -1636.6555830481 -6.45E-04
   104 OT SD       0.80E-01    2.9     0.00002821     -1636.6555908527 -7.80E-06
   105 OT SD       0.80E-01    2.9     0.00008457     -1636.6555341887  5.67E-05
   106 OT DIIS     0.80E-01    3.0     0.00028472     -1636.6547361205  7.98E-04
   107 OT DIIS     0.80E-01    2.9     0.00002201     -1636.6544891655  2.47E-04
   108 OT DIIS     0.80E-01    2.9     0.00001392     -1636.6557777724 -1.29E-03
   109 OT DIIS     0.80E-01    2.9     0.00001401     -1636.6560027728 -2.25E-04
   110 OT SD       0.80E-01    2.9     0.00001412     -1636.6560493074 -4.65E-05
   111 OT DIIS     0.80E-01    2.9     0.00001640     -1636.6560658440 -1.65E-05
   112 OT DIIS     0.80E-01    2.9     0.00001713     -1636.6563818921 -3.16E-04
   113 OT SD       0.80E-01    2.9     0.00001702     -1636.6565440103 -1.62E-04
   114 OT SD       0.80E-01    2.9     0.00002233     -1636.6565650612 -2.11E-05
   115 OT SD       0.80E-01    2.9     0.00005220     -1636.6565617454  3.32E-06
   116 OT SD       0.80E-01    3.0     0.00016270     -1636.6563154134  2.46E-04
   117 OT DIIS     0.80E-01    2.9     0.00054143     -1636.6533672581  2.95E-03
   118 OT DIIS     0.80E-01    2.9     0.00001789     -1636.6563282676 -2.96E-03
   119 OT DIIS     0.80E-01    3.0     0.00001690     -1636.6564672934 -1.39E-04
   120 OT SD       0.80E-01    2.9     0.00001711     -1636.6564774598 -1.02E-05
   121 OT SD       0.80E-01    2.9     0.00003208     -1636.6564900528 -1.26E-05
   122 OT SD       0.80E-01    3.0     0.00009624     -1636.6564195079  7.05E-05
   123 OT DIIS     0.80E-01    2.9     0.00032446     -1636.6553859375  1.03E-03
   124 OT SD       0.80E-01    2.9     0.00001762     -1636.6561987728 -8.13E-04
   125 OT SD       0.80E-01    2.9     0.00003845     -1636.6562036687 -4.90E-06
   126 OT SD       0.80E-01    3.0     0.00012024     -1636.6560766838  1.27E-04
   127 OT DIIS     0.80E-01    2.9     0.00040477     -1636.6544444890  1.63E-03
   128 OT DIIS     0.80E-01    2.9     0.00001808     -1636.6551814654 -7.37E-04
   129 OT DIIS     0.80E-01    3.0     0.00001470     -1636.6561750322 -9.94E-04
   130 OT SD       0.80E-01    2.9     0.00001386     -1636.6562597736 -8.47E-05
   131 OT SD       0.80E-01    2.9     0.00001435     -1636.6562781432 -1.84E-05
   132 OT DIIS     0.80E-01    2.9     0.00001787     -1636.6562954214 -1.73E-05
   133 OT DIIS     0.80E-01    2.9     0.00001438     -1636.6563167202 -2.13E-05
   134 OT DIIS     0.80E-01    2.9     0.00001517     -1636.6563620740 -4.54E-05
   135 OT SD       0.80E-01    2.9     0.00001599     -1636.6565737766 -2.12E-04
   136 OT SD       0.80E-01    3.0     0.00001996     -1636.6565951087 -2.13E-05
   137 OT SD       0.80E-01    3.0     0.00004432     -1636.6566001462 -5.04E-06
   138 OT SD       0.80E-01    2.9     0.00013952     -1636.6564279739  1.72E-04
   139 OT DIIS     0.80E-01    2.9     0.00047189     -1636.6542140897  2.21E-03
   140 OT DIIS     0.80E-01    3.0     0.00002012     -1636.6561620817 -1.95E-03
   141 OT DIIS     0.80E-01    2.9     0.00002024     -1636.6562273100 -6.52E-05
   142 OT SD       0.80E-01    2.9     0.00001814     -1636.6564015368 -1.74E-04
   143 OT SD       0.80E-01    2.9     0.00003936     -1636.6564079966 -6.46E-06
   144 OT SD       0.80E-01    2.9     0.00012463     -1636.6562735143  1.34E-04
   145 OT DIIS     0.80E-01    2.9     0.00042468     -1636.6544880315  1.79E-03
   146 OT SD       0.80E-01    2.9     0.00001571     -1636.6561663997 -1.68E-03
   147 OT SD       0.80E-01    3.0     0.00002628     -1636.6561784636 -1.21E-05
   148 OT SD       0.80E-01    2.9     0.00006982     -1636.6561467572  3.17E-05
   149 OT DIIS     0.80E-01    2.9     0.00021845     -1636.6556713243  4.75E-04
   150 OT DIIS     0.80E-01    2.9     0.00001478     -1636.6553276653  3.44E-04
   151 OT SD       0.80E-01    2.9     0.00001364     -1636.6558688134 -5.41E-04
   152 OT SD       0.80E-01    3.0     0.00002032     -1636.6558813885 -1.26E-05
   153 OT SD       0.80E-01    3.0     0.00005262     -1636.6558698138  1.16E-05
   154 OT DIIS     0.80E-01    3.0     0.00017033     -1636.6555925229  2.77E-04
   155 OT SD       0.80E-01    3.0     0.00001299     -1636.6557872576 -1.95E-04
   156 OT SD       0.80E-01    2.9     0.00001807     -1636.6558002200 -1.30E-05
   157 OT SD       0.80E-01    2.9     0.00004695     -1636.6557946430  5.58E-06
   158 OT SD       0.80E-01    2.9     0.00016066     -1636.6555574503  2.37E-04
   159 OT DIIS     0.80E-01    2.9     0.00057397     -1636.6523511812  3.21E-03
   160 OT SD       0.80E-01    2.9     0.00001237     -1636.6557251408 -3.37E-03
   161 OT SD       0.80E-01    2.9     0.00001340     -1636.6557394209 -1.43E-05
   162 OT SD       0.80E-01    2.9     0.00002176     -1636.6557507158 -1.13E-05
   163 OT SD       0.80E-01    2.9     0.00006244     -1636.6557277255  2.30E-05
   164 OT DIIS     0.80E-01    2.9     0.00021303     -1636.6552928799  4.35E-04
   165 OT SD       0.80E-01    2.9     0.00001224     -1636.6557448355 -4.52E-04
   166 OT SD       0.80E-01    2.9     0.00001230     -1636.6557593969 -1.46E-05
   167 OT SD       0.80E-01    2.9     0.00001284     -1636.6557738347 -1.44E-05
   168 OT SD       0.80E-01    2.9     0.00001712     -1636.6557869536 -1.31E-05
   169 OT SD       0.80E-01    3.0     0.00003999     -1636.6557865565  3.97E-07
   170 OT DIIS     0.80E-01    3.0     0.00012517     -1636.6556422814  1.44E-04
   171 OT SD       0.80E-01    2.9     0.00001240     -1636.6555340290  1.08E-04
   172 OT DIIS     0.80E-01    2.9     0.00001303     -1636.6555483880 -1.44E-05
   173 OT SD       0.80E-01    2.9     0.00001235     -1636.6556476523 -9.93E-05
   174 OT SD       0.80E-01    2.9     0.00001293     -1636.6556621545 -1.45E-05
   175 OT SD       0.80E-01    3.0     0.00001874     -1636.6556747430 -1.26E-05
   176 OT SD       0.80E-01    2.9     0.00005146     -1636.6556646477  1.01E-05
   177 OT DIIS     0.80E-01    3.0     0.00017816     -1636.6553685688  2.96E-04
   178 OT SD       0.80E-01    2.9     0.00001215     -1636.6556380619 -2.69E-04
   179 OT SD       0.80E-01    2.9     0.00001235     -1636.6556523313 -1.43E-05
   180 OT SD       0.80E-01    3.0     0.00001459     -1636.6556659880 -1.37E-05
   181 OT SD       0.80E-01    2.9     0.00003102     -1636.6556722569 -6.27E-06
   182 OT DIIS     0.80E-01    2.9     0.00010241     -1636.6555851860  8.71E-05
   183 OT DIIS     0.80E-01    3.0     0.00001214     -1636.6556849717 -9.98E-05
   184 OT SD       0.80E-01    2.9     0.00001213     -1636.6556863248 -1.35E-06
   185 OT SD       0.80E-01    3.0     0.00001219     -1636.6557006265 -1.43E-05
   186 OT SD       0.80E-01    2.9     0.00001266     -1636.6557148201 -1.42E-05
   187 OT SD       0.80E-01    3.0     0.00001647     -1636.6557278677 -1.30E-05
   188 OT SD       0.80E-01    2.9     0.00003713     -1636.6557293837 -1.52E-06
   189 OT SD       0.80E-01    2.9     0.00011402     -1636.6556110065  1.18E-04
   190 OT DIIS     0.80E-01    2.9     0.00037438     -1636.6541943284  1.42E-03
   191 OT DIIS     0.80E-01    3.0     0.00001263     -1636.6553888446 -1.19E-03
   192 OT DIIS     0.80E-01    2.9     0.00001233     -1636.6554774605 -8.86E-05
   193 OT DIIS     0.80E-01    2.9     0.00001249     -1636.6554836879 -6.23E-06
   194 OT SD       0.80E-01    2.9     0.00001219     -1636.6557248871 -2.41E-04
   195 OT SD       0.80E-01    2.9     0.00001243     -1636.6557391987 -1.43E-05
   196 OT SD       0.80E-01    2.9     0.00001440     -1636.6557529929 -1.38E-05
   197 OT SD       0.80E-01    3.0     0.00002750     -1636.6557611844 -8.19E-06
   198 OT SD       0.80E-01    2.9     0.00008255     -1636.6557077309  5.35E-05
   199 OT DIIS     0.80E-01    3.0     0.00027550     -1636.6549556973  7.52E-04
   200 OT DIIS     0.80E-01    3.0     0.00001277     -1636.6553762930 -4.21E-04

  Leaving inner SCF loop after reaching   200 steps.


  Electronic density on regular grids:       -896.0000012067       -0.0000012067
  Core density on regular grids:              895.9999999261       -0.0000000739
  Total charge density on r-space grids:       -0.0000012806
  Total charge density g-space grids:          -0.0000012806

  Overlap energy of the core charge distribution:               0.00005123469939
  Self energy of the core charge distribution:              -3531.67332257831958
  Core Hamiltonian energy:                                   1018.18508139214555
  Hartree energy:                                            1267.48704669584845
  Exchange-correlation energy:                               -389.82257563358587
  Dispersion energy:                                           -0.83165740378886

  Total energy:                                             -1636.65537629300093

  outer SCF iter =    9 RMS gradient =   0.13E-04 energy =      -1636.6553762930
  outer SCF loop FAILED to converge after    9 iterations or 1800 steps


 *** WARNING in qs_scf.F:598 :: SCF run NOT converged ***


 ENERGY| Total FORCE_EVAL ( QS ) energy [a.u.]:            -1636.655385108764222

 --------  Informations at step =     6 ------------
  Optimization Method        =                 BFGS
  Total Energy               =     -1636.6553851088
  Real energy change         =         0.0557419257
  Predicted change in energy =        -0.1092985478
  Scaling factor             =         0.4834064417
  Step size                  =         0.4724315332
  Trust radius               =         0.4724315332
  Decrease in energy         =                   NO
  Used time                  =             5446.066

  Convergence check :
  Max. step size             =         0.4724315332
  Conv. limit for step size  =         0.0030000000
  Convergence in step size   =                   NO
  RMS step size              =         0.0381610020
  Conv. limit for RMS step   =         0.0015000000
  Convergence in RMS step    =                   NO
  Max. gradient              =         0.0919962653
  Conv. limit for gradients  =         0.0004500000
  Conv. for gradients        =                   NO
  RMS gradient               =         0.0070769723
  Conv. limit for RMS grad.  =         0.0003000000
  Conv. for gradients        =                   NO
 ---------------------------------------------------

 --------------------------
 OPTIMIZATION STEP:      7
 --------------------------

 Number of electrons:                                                        896
 Number of occupied orbitals:                                                448
 Number of molecular orbitals:                                               448

 Number of orbital functions:                                               2720
 Number of independent orbital functions:                                   2720

 Extrapolation method: ASPC


 SCF WAVEFUNCTION OPTIMIZATION

  ----------------------------------- OT ---------------------------------------
  Minimizer      : DIIS                : direct inversion
                                         in the iterative subspace
                                         using   7 DIIS vectors
                                         safer DIIS on
  Preconditioner : FULL_SINGLE_INVERSE : inversion of 
                                         H + eS - 2*(Sc)(c^T*H*c+const)(Sc)^T
  Precond_solver : DEFAULT
  stepsize       :    0.08000000                  energy_gap     :    0.08000000
  eps_taylor     :   0.10000E-15                  max_taylor     :             4
  ----------------------------------- OT ---------------------------------------

  Step     Update method      Time    Convergence         Total energy    Change
  ------------------------------------------------------------------------------
     1 OT DIIS     0.80E-01    4.0     0.00195783     -1636.2867025230 -1.64E+03
     2 OT DIIS     0.80E-01    3.0     0.00217661     -1636.4858911436 -1.99E-01
     3 OT DIIS     0.80E-01    3.0     0.00270619     -1636.5100927437 -2.42E-02
     4 OT DIIS     0.80E-01    3.0     0.00200665     -1636.5828887616 -7.28E-02
     5 OT DIIS     0.80E-01    3.0     0.00306667     -1636.5783420962  4.55E-03
     6 OT DIIS     0.80E-01    3.0     0.00090273     -1636.6344118031 -5.61E-02
     7 OT DIIS     0.80E-01    3.0     0.00066909     -1636.6476213563 -1.32E-02
     8 OT DIIS     0.80E-01    3.0     0.00059482     -1636.6527003843 -5.08E-03
     9 OT DIIS     0.80E-01    3.0     0.00063788     -1636.6587268699 -6.03E-03
    10 OT DIIS     0.80E-01    3.0     0.00068556     -1636.6604403042 -1.71E-03
    11 OT DIIS     0.80E-01    3.0     0.00040959     -1636.6643872434 -3.95E-03
    12 OT DIIS     0.80E-01    3.0     0.00041470     -1636.6648112149 -4.24E-04
    13 OT DIIS     0.80E-01    3.0     0.00058655     -1636.6655708394 -7.60E-04
    14 OT DIIS     0.80E-01    3.1     0.00034759     -1636.6669989378 -1.43E-03
    15 OT DIIS     0.80E-01    3.0     0.00020503     -1636.6680429417 -1.04E-03
    16 OT DIIS     0.80E-01    3.0     0.00020185     -1636.6685755960 -5.33E-04
    17 OT DIIS     0.80E-01    3.0     0.00016386     -1636.6693882150 -8.13E-04
    18 OT DIIS     0.80E-01    3.0     0.00020956     -1636.6699205680 -5.32E-04
    19 OT DIIS     0.80E-01    3.0     0.00014452     -1636.6706749287 -7.54E-04
    20 OT DIIS     0.80E-01    3.0     0.00017229     -1636.6712718710 -5.97E-04
    21 OT DIIS     0.80E-01    3.0     0.00024494     -1636.6718784605 -6.07E-04
    22 OT DIIS     0.80E-01    3.0     0.00020564     -1636.6724424362 -5.64E-04
    23 OT DIIS     0.80E-01    3.0     0.00015363     -1636.6729168592 -4.74E-04
    24 OT DIIS     0.80E-01    3.0     0.00018103     -1636.6732843583 -3.67E-04
    25 OT DIIS     0.80E-01    3.0     0.00014806     -1636.6734965074 -2.12E-04
    26 OT DIIS     0.80E-01    3.0     0.00018038     -1636.6738820202 -3.86E-04
    27 OT DIIS     0.80E-01    3.0     0.00010664     -1636.6740364963 -1.54E-04
    28 OT DIIS     0.80E-01    3.0     0.00010555     -1636.6743590644 -3.23E-04
    29 OT DIIS     0.80E-01    3.0     0.00011510     -1636.6746402727 -2.81E-04
    30 OT DIIS     0.80E-01    3.0     0.00010284     -1636.6749343036 -2.94E-04
    31 OT DIIS     0.80E-01    3.0     0.00009878     -1636.6752527172 -3.18E-04
    32 OT DIIS     0.80E-01    3.0     0.00010953     -1636.6757190547 -4.66E-04
    33 OT DIIS     0.80E-01    3.0     0.00011102     -1636.6759227334 -2.04E-04
    34 OT DIIS     0.80E-01    3.0     0.00015065     -1636.6763483801 -4.26E-04
    35 OT DIIS     0.80E-01    3.0     0.00010777     -1636.6762911213  5.73E-05
    36 OT DIIS     0.80E-01    3.0     0.00011418     -1636.6765794597 -2.88E-04
    37 OT DIIS     0.80E-01    3.0     0.00011569     -1636.6766876516 -1.08E-04
    38 OT DIIS     0.80E-01    3.0     0.00009576     -1636.6768663861 -1.79E-04
    39 OT DIIS     0.80E-01    3.0     0.00008288     -1636.6769948215 -1.28E-04
    40 OT DIIS     0.80E-01    3.0     0.00008132     -1636.6772544984 -2.60E-04
    41 OT DIIS     0.80E-01    3.0     0.00007644     -1636.6774280077 -1.74E-04
    42 OT DIIS     0.80E-01    3.0     0.00009822     -1636.6777416935 -3.14E-04
    43 OT DIIS     0.80E-01    3.0     0.00008805     -1636.6777916086 -4.99E-05
    44 OT DIIS     0.80E-01    3.0     0.00009392     -1636.6780804170 -2.89E-04
    45 OT DIIS     0.80E-01    3.0     0.00010600     -1636.6781506924 -7.03E-05
    46 OT DIIS     0.80E-01    3.0     0.00009498     -1636.6782871099 -1.36E-04
    47 OT DIIS     0.80E-01    3.0     0.00007944     -1636.6783428313 -5.57E-05
    48 OT DIIS     0.80E-01    3.0     0.00007424     -1636.6785295592 -1.87E-04
    49 OT DIIS     0.80E-01    3.0     0.00006667     -1636.6786296799 -1.00E-04
    50 OT DIIS     0.80E-01    3.0     0.00007168     -1636.6788323969 -2.03E-04
    51 OT DIIS     0.80E-01    3.0     0.00006932     -1636.6789199561 -8.76E-05
    52 OT DIIS     0.80E-01    3.0     0.00007265     -1636.6791274960 -2.08E-04
    53 OT DIIS     0.80E-01    3.0     0.00008062     -1636.6792442347 -1.17E-04
    54 OT DIIS     0.80E-01    3.1     0.00008554     -1636.6793903999 -1.46E-04
    55 OT DIIS     0.80E-01    3.0     0.00007372     -1636.6794736525 -8.33E-05
    56 OT DIIS     0.80E-01    3.0     0.00007677     -1636.6795834520 -1.10E-04
    57 OT DIIS     0.80E-01    3.0     0.00006493     -1636.6796427895 -5.93E-05
    58 OT DIIS     0.80E-01    3.0     0.00006528     -1636.6797978167 -1.55E-04
    59 OT DIIS     0.80E-01    3.0     0.00006385     -1636.6798590285 -6.12E-05
    60 OT DIIS     0.80E-01    3.0     0.00006175     -1636.6799867516 -1.28E-04
    61 OT DIIS     0.80E-01    3.0     0.00006226     -1636.6801016590 -1.15E-04
    62 OT DIIS     0.80E-01    3.0     0.00006994     -1636.6802264053 -1.25E-04
    63 OT DIIS     0.80E-01    3.0     0.00006267     -1636.6803696852 -1.43E-04
    64 OT DIIS     0.80E-01    3.0     0.00007183     -1636.6804405499 -7.09E-05
    65 OT DIIS     0.80E-01    3.0     0.00006279     -1636.6805335115 -9.30E-05
    66 OT DIIS     0.80E-01    3.0     0.00006510     -1636.6806491656 -1.16E-04
    67 OT DIIS     0.80E-01    3.0     0.00006393     -1636.6806977227 -4.86E-05
    68 OT DIIS     0.80E-01    3.0     0.00005955     -1636.6807761504 -7.84E-05
    69 OT DIIS     0.80E-01    3.0     0.00005650     -1636.6808661960 -9.00E-05
    70 OT DIIS     0.80E-01    3.0     0.00005884     -1636.6809592205 -9.30E-05
    71 OT DIIS     0.80E-01    3.0     0.00005488     -1636.6810943982 -1.35E-04
    72 OT DIIS     0.80E-01    3.0     0.00006104     -1636.6811580921 -6.37E-05
    73 OT DIIS     0.80E-01    3.0     0.00005730     -1636.6812948654 -1.37E-04
    74 OT DIIS     0.80E-01    3.1     0.00006154     -1636.6814014242 -1.07E-04
    75 OT DIIS     0.80E-01    3.0     0.00006373     -1636.6814731957 -7.18E-05
    76 OT DIIS     0.80E-01    3.0     0.00006093     -1636.6815040679 -3.09E-05
    77 OT DIIS     0.80E-01    3.0     0.00005630     -1636.6815792808 -7.52E-05
    78 OT DIIS     0.80E-01    3.0     0.00005657     -1636.6816426424 -6.34E-05
    79 OT DIIS     0.80E-01    3.0     0.00005131     -1636.6817576552 -1.15E-04
    80 OT DIIS     0.80E-01    3.0     0.00005345     -1636.6818041884 -4.65E-05
    81 OT DIIS     0.80E-01    3.0     0.00005109     -1636.6819265037 -1.22E-04
    82 OT DIIS     0.80E-01    3.0     0.00005459     -1636.6820366470 -1.10E-04
    83 OT DIIS     0.80E-01    3.0     0.00005812     -1636.6821424987 -1.06E-04
    84 OT DIIS     0.80E-01    3.1     0.00005954     -1636.6821685976 -2.61E-05
    85 OT DIIS     0.80E-01    3.0     0.00005715     -1636.6822482114 -7.96E-05
    86 OT DIIS     0.80E-01    3.0     0.00005866     -1636.6822834368 -3.52E-05
    87 OT DIIS     0.80E-01    3.0     0.00005095     -1636.6823885689 -1.05E-04
    88 OT DIIS     0.80E-01    3.0     0.00005177     -1636.6824079177 -1.93E-05
    89 OT DIIS     0.80E-01    3.0     0.00004747     -1636.6825066432 -9.87E-05
    90 OT DIIS     0.80E-01    3.0     0.00004905     -1636.6825962973 -8.97E-05
    91 OT DIIS     0.80E-01    3.0     0.00005099     -1636.6827044409 -1.08E-04
    92 OT DIIS     0.80E-01    3.0     0.00005395     -1636.6827480771 -4.36E-05
    93 OT DIIS     0.80E-01    3.0     0.00005447     -1636.6828477258 -9.96E-05
    94 OT DIIS     0.80E-01    3.1     0.00005853     -1636.6828811045 -3.34E-05
    95 OT DIIS     0.80E-01    3.0     0.00005113     -1636.6829822423 -1.01E-04
    96 OT DIIS     0.80E-01    3.0     0.00005348     -1636.6829751211  7.12E-06
    97 OT DIIS     0.80E-01    3.0     0.00004658     -1636.6830610483 -8.59E-05
    98 OT DIIS     0.80E-01    3.0     0.00004671     -1636.6831235582 -6.25E-05
    99 OT DIIS     0.80E-01    3.0     0.00004655     -1636.6832174791 -9.39E-05
   100 OT DIIS     0.80E-01    3.0     0.00004784     -1636.6832609861 -4.35E-05
   101 OT DIIS     0.80E-01    3.0     0.00004865     -1636.6833584310 -9.74E-05
   102 OT DIIS     0.80E-01    3.0     0.00005309     -1636.6834089452 -5.05E-05
   103 OT DIIS     0.80E-01    3.0     0.00004863     -1636.6835109185 -1.02E-04
   104 OT DIIS     0.80E-01    3.0     0.00005342     -1636.6835112979 -3.79E-07
   105 OT DIIS     0.80E-01    3.0     0.00004664     -1636.6835910876 -7.98E-05
   106 OT DIIS     0.80E-01    3.0     0.00004669     -1636.6836232392 -3.22E-05
   107 OT DIIS     0.80E-01    3.0     0.00004493     -1636.6837087334 -8.55E-05
   108 OT DIIS     0.80E-01    3.0     0.00004459     -1636.6837393644 -3.06E-05
   109 OT DIIS     0.80E-01    3.0     0.00004389     -1636.6838205151 -8.12E-05
   110 OT DIIS     0.80E-01    3.0     0.00004615     -1636.6838729328 -5.24E-05
   111 OT DIIS     0.80E-01    3.0     0.00004402     -1636.6839654216 -9.25E-05
   112 OT DIIS     0.80E-01    3.0     0.00004809     -1636.6839965800 -3.12E-05
   113 OT DIIS     0.80E-01    3.0     0.00004450     -1636.6840814891 -8.49E-05
   114 OT DIIS     0.80E-01    3.0     0.00004545     -1636.6840983631 -1.69E-05
   115 OT DIIS     0.80E-01    3.0     0.00004377     -1636.6841777245 -7.94E-05
   116 OT DIIS     0.80E-01    3.0     0.00004308     -1636.6841910696 -1.33E-05
   117 OT DIIS     0.80E-01    3.1     0.00004146     -1636.6842605746 -6.95E-05
   118 OT DIIS     0.80E-01    3.1     0.00004188     -1636.6843070739 -4.65E-05
   119 OT DIIS     0.80E-01    3.0     0.00004050     -1636.6843819259 -7.49E-05
   120 OT DIIS     0.80E-01    3.0     0.00004199     -1636.6844340197 -5.21E-05
   121 OT DIIS     0.80E-01    3.0     0.00004087     -1636.6845195249 -8.55E-05
   122 OT DIIS     0.80E-01    3.0     0.00004183     -1636.6845513239 -3.18E-05
   123 OT DIIS     0.80E-01    3.1     0.00004116     -1636.6846250819 -7.38E-05
   124 OT DIIS     0.80E-01    3.0     0.00004152     -1636.6846412149 -1.61E-05
   125 OT DIIS     0.80E-01    3.0     0.00004038     -1636.6847013746 -6.02E-05
   126 OT DIIS     0.80E-01    3.0     0.00004074     -1636.6847435402 -4.22E-05
   127 OT DIIS     0.80E-01    3.0     0.00003956     -1636.6848039745 -6.04E-05
   128 OT DIIS     0.80E-01    3.0     0.00004063     -1636.6848692772 -6.53E-05
   129 OT DIIS     0.80E-01    3.0     0.00004003     -1636.6849473709 -7.81E-05
   130 OT DIIS     0.80E-01    3.0     0.00004198     -1636.6850284326 -8.11E-05
   131 OT DIIS     0.80E-01    3.0     0.00004252     -1636.6850964722 -6.80E-05
   132 OT DIIS     0.80E-01    3.0     0.00004512     -1636.6851741845 -7.77E-05
   133 OT DIIS     0.80E-01    3.0     0.00004435     -1636.6852084353 -3.43E-05
   134 OT DIIS     0.80E-01    3.1     0.00004738     -1636.6852613630 -5.29E-05
   135 OT DIIS     0.80E-01    3.0     0.00004189     -1636.6852812267 -1.99E-05
   136 OT DIIS     0.80E-01    3.0     0.00004334     -1636.6853409541 -5.97E-05
   137 OT DIIS     0.80E-01    3.0     0.00003997     -1636.6853810703 -4.01E-05
   138 OT DIIS     0.80E-01    3.0     0.00004076     -1636.6854452831 -6.42E-05
   139 OT DIIS     0.80E-01    3.0     0.00004066     -1636.6854891801 -4.39E-05
   140 OT DIIS     0.80E-01    3.0     0.00004250     -1636.6855773625 -8.82E-05
   141 OT DIIS     0.80E-01    3.0     0.00004370     -1636.6856113192 -3.40E-05
   142 OT DIIS     0.80E-01    3.0     0.00004808     -1636.6856865140 -7.52E-05
   143 OT DIIS     0.80E-01    3.0     0.00004325     -1636.6856934269 -6.91E-06
   144 OT DIIS     0.80E-01    3.0     0.00004640     -1636.6857679652 -7.45E-05
   145 OT DIIS     0.80E-01    3.0     0.00004112     -1636.6857799183 -1.20E-05
   146 OT DIIS     0.80E-01    3.0     0.00004120     -1636.6858414365 -6.15E-05
   147 OT DIIS     0.80E-01    3.0     0.00003950     -1636.6858624609 -2.10E-05
   148 OT DIIS     0.80E-01    3.0     0.00003956     -1636.6859421698 -7.97E-05
   149 OT DIIS     0.80E-01    3.0     0.00004035     -1636.6859710635 -2.89E-05
   150 OT DIIS     0.80E-01    3.0     0.00004360     -1636.6860512671 -8.02E-05
   151 OT DIIS     0.80E-01    3.0     0.00004134     -1636.6860625208 -1.13E-05
   152 OT DIIS     0.80E-01    2.9     0.00004570     -1636.6861572924 -9.48E-05
   153 OT DIIS     0.80E-01    3.0     0.00004170     -1636.6861550187  2.27E-06
   154 OT SD       0.80E-01    3.0     0.00004249     -1636.6862222660 -6.72E-05
   155 OT DIIS     0.80E-01    3.0     0.00022223     -1636.6861048647  1.17E-04
   156 OT SD       0.80E-01    3.0     0.00004337     -1636.6863590789 -2.54E-04
   157 OT DIIS     0.80E-01    3.0     0.00025114     -1636.6861799285  1.79E-04
   158 OT SD       0.80E-01    3.0     0.00005428     -1636.6865701085 -3.90E-04
   159 OT DIIS     0.80E-01    3.0     0.00041314     -1636.6859048400  6.65E-04
   160 OT DIIS     0.80E-01    3.0     0.00006966     -1636.6872123066 -1.31E-03
   161 OT SD       0.80E-01    3.0     0.00009875     -1636.6877142499 -5.02E-04
   162 OT DIIS     0.80E-01    3.0     0.00084867     -1636.6843770084  3.34E-03
   163 OT DIIS     0.80E-01    3.0     0.00009769     -1636.6882181848 -3.84E-03
   164 OT DIIS     0.80E-01    3.0     0.00005997     -1636.6888958033 -6.78E-04
   165 OT SD       0.80E-01    3.0     0.00004716     -1636.6893853289 -4.90E-04
   166 OT DIIS     0.80E-01    3.0     0.00039389     -1636.6886949619  6.90E-04
   167 OT DIIS     0.80E-01    3.0     0.00003052     -1636.6892209416 -5.26E-04
   168 OT DIIS     0.80E-01    3.0     0.00002332     -1636.6893136741 -9.27E-05
   169 OT SD       0.80E-01    3.0     0.00002509     -1636.6893393947 -2.57E-05
   170 OT DIIS     0.80E-01    3.0     0.00018735     -1636.6892054140  1.34E-04
   171 OT DIIS     0.80E-01    3.0     0.00001862     -1636.6893670118 -1.62E-04
   172 OT DIIS     0.80E-01    3.0     0.00001848     -1636.6893756880 -8.68E-06
   173 OT DIIS     0.80E-01    3.0     0.00002088     -1636.6894376619 -6.20E-05
   174 OT SD       0.80E-01    3.0     0.00002220     -1636.6894765167 -3.89E-05
   175 OT DIIS     0.80E-01    3.0     0.00015667     -1636.6893822886  9.42E-05
   176 OT SD       0.80E-01    3.0     0.00001896     -1636.6895494079 -1.67E-04
   177 OT DIIS     0.80E-01    3.0     0.00009910     -1636.6895155183  3.39E-05
   178 OT DIIS     0.80E-01    3.0     0.00002001     -1636.6895862289 -7.07E-05
   179 OT SD       0.80E-01    3.0     0.00001613     -1636.6896117846 -2.56E-05
   180 OT DIIS     0.80E-01    3.0     0.00007239     -1636.6896022782  9.51E-06
   181 OT SD       0.80E-01    3.0     0.00002269     -1636.6896597394 -5.75E-05
   182 OT DIIS     0.80E-01    3.0     0.00016042     -1636.6895520774  1.08E-04
   183 OT SD       0.80E-01    3.0     0.00001750     -1636.6896812663 -1.29E-04
   184 OT DIIS     0.80E-01    3.0     0.00011164     -1636.6896406894  4.06E-05
   185 OT DIIS     0.80E-01    3.0     0.00001359     -1636.6896995877 -5.89E-05
   186 OT SD       0.80E-01    3.0     0.00001361     -1636.6897451238 -4.55E-05
   187 OT SD       0.80E-01    3.0     0.00003800     -1636.6897542533 -9.13E-06
   188 OT DIIS     0.80E-01    3.0     0.00032110     -1636.6892868143  4.67E-04
   189 OT DIIS     0.80E-01    3.0     0.00001290     -1636.6897942668 -5.07E-04
   190 OT SD       0.80E-01    3.0     0.00001297     -1636.6898314019 -3.71E-05
   191 OT SD       0.80E-01    3.0     0.00002632     -1636.6898447692 -1.34E-05
   192 OT DIIS     0.80E-01    3.0     0.00022068     -1636.6896400080  2.05E-04
   193 OT DIIS     0.80E-01    3.0     0.00001278     -1636.6898106601 -1.71E-04
   194 OT SD       0.80E-01    3.1     0.00001283     -1636.6898311236 -2.05E-05
   195 OT SD       0.80E-01    3.0     0.00001604     -1636.6898464737 -1.54E-05
   196 OT DIIS     0.80E-01    3.0     0.00008364     -1636.6898293413  1.71E-05
   197 OT SD       0.80E-01    3.0     0.00001291     -1636.6898235182  5.82E-06
   198 OT SD       0.80E-01    3.0     0.00001920     -1636.6898380582 -1.45E-05
   199 OT DIIS     0.80E-01    3.0     0.00012013     -1636.6897836660  5.44E-05
   200 OT DIIS     0.80E-01    3.0     0.00001519     -1636.6897787638  4.90E-06

  Leaving inner SCF loop after reaching   200 steps.


  Electronic density on regular grids:       -895.9999996200        0.0000003800
  Core density on regular grids:              895.9999999260       -0.0000000740
  Total charge density on r-space grids:        0.0000003060
  Total charge density g-space grids:           0.0000003060

  Overlap energy of the core charge distribution:               0.00005624816377
  Self energy of the core charge distribution:              -3531.67332257831958
  Core Hamiltonian energy:                                   1018.49678834439135
  Hartree energy:                                            1267.27195234730607
  Exchange-correlation energy:                               -389.95332314524444
  Dispersion energy:                                           -0.83192998012951

  Total energy:                                             -1636.68977876383224

  outer SCF iter =    1 RMS gradient =   0.15E-04 energy =      -1636.6897787638

  ----------------------------------- OT ---------------------------------------
  Minimizer      : DIIS                : direct inversion
                                         in the iterative subspace
                                         using   7 DIIS vectors
                                         safer DIIS on
  Preconditioner : FULL_SINGLE_INVERSE : inversion of 
                                         H + eS - 2*(Sc)(c^T*H*c+const)(Sc)^T
  Precond_solver : DEFAULT
  stepsize       :    0.08000000                  energy_gap     :    0.08000000
  eps_taylor     :   0.10000E-15                  max_taylor     :             4
  ----------------------------------- OT ---------------------------------------

  Step     Update method      Time    Convergence         Total energy    Change
  ------------------------------------------------------------------------------
     1 OT DIIS     0.80E-01    8.0     0.00001498     -1636.6897837703 -5.01E-06
     2 OT DIIS     0.80E-01    2.9     0.00002199     -1636.6897990924 -1.53E-05
     3 OT DIIS     0.80E-01    2.9     0.00001436     -1636.6898067401 -7.65E-06
     4 OT DIIS     0.80E-01    2.9     0.00001366     -1636.6898143785 -7.64E-06
     5 OT DIIS     0.80E-01    2.9     0.00001358     -1636.6898244455 -1.01E-05
     6 OT DIIS     0.80E-01    3.0     0.00001353     -1636.6898473900 -2.29E-05
     7 OT DIIS     0.80E-01    2.9     0.00001350     -1636.6898577305 -1.03E-05
     8 OT SD       0.80E-01    3.0     0.00001350     -1636.6898608880 -3.16E-06
     9 OT SD       0.80E-01    2.9     0.00001353     -1636.6898786476 -1.78E-05
    10 OT SD       0.80E-01    2.9     0.00001374     -1636.6898964112 -1.78E-05
    11 OT SD       0.80E-01    2.9     0.00001657     -1636.6899134794 -1.71E-05
    12 OT SD       0.80E-01    2.9     0.00004116     -1636.6899179339 -4.45E-06
    13 OT DIIS     0.80E-01    3.0     0.00016148     -1636.6897057078  2.12E-04
    14 OT SD       0.80E-01    2.9     0.00001371     -1636.6897200086 -1.43E-05
    15 OT SD       0.80E-01    3.0     0.00001874     -1636.6897355733 -1.56E-05
    16 OT SD       0.80E-01    2.9     0.00005536     -1636.6897267305  8.84E-06
    17 OT DIIS     0.80E-01    2.9     0.00022271     -1636.6893042764  4.22E-04
    18 OT DIIS     0.80E-01    3.0     0.00001332     -1636.6896050828 -3.01E-04
    19 OT SD       0.80E-01    3.0     0.00001381     -1636.6896824800 -7.74E-05
    20 OT SD       0.80E-01    2.9     0.00002210     -1636.6896956440 -1.32E-05
    21 OT SD       0.80E-01    3.0     0.00006940     -1636.6896681371  2.75E-05
    22 OT DIIS     0.80E-01    2.9     0.00026374     -1636.6890383769  6.30E-04
    23 OT SD       0.80E-01    2.9     0.00001335     -1636.6897888256 -7.50E-04
    24 OT DIIS     0.80E-01    3.0     0.00002059     -1636.6898017519 -1.29E-05
    25 OT DIIS     0.80E-01    3.0     0.00001299     -1636.6899124777 -1.11E-04
    26 OT DIIS     0.80E-01    2.9     0.00001267     -1636.6899217523 -9.27E-06
    27 OT SD       0.80E-01    3.0     0.00001250     -1636.6899361441 -1.44E-05
    28 OT SD       0.80E-01    2.9     0.00001277     -1636.6899512750 -1.51E-05
    29 OT SD       0.80E-01    2.9     0.00001570     -1636.6899657680 -1.45E-05
    30 OT SD       0.80E-01    2.9     0.00003950     -1636.6899685353 -2.77E-06
    31 OT DIIS     0.80E-01    2.9     0.00015395     -1636.6897740450  1.94E-04
    32 OT SD       0.80E-01    2.9     0.00001244     -1636.6896536590  1.20E-04
    33 OT SD       0.80E-01    2.9     0.00001538     -1636.6896670109 -1.34E-05
    34 OT SD       0.80E-01    2.9     0.00003937     -1636.6896683866 -1.38E-06
    35 OT DIIS     0.80E-01    3.0     0.00015465     -1636.6894708612  1.98E-04
    36 OT DIIS     0.80E-01    2.9     0.00001223     -1636.6895557820 -8.49E-05
    37 OT DIIS     0.80E-01    2.9     0.00001208     -1636.6895848701 -2.91E-05
    38 OT SD       0.80E-01    2.9     0.00001209     -1636.6896368488 -5.20E-05
    39 OT SD       0.80E-01    2.9     0.00001439     -1636.6896497302 -1.29E-05
    40 OT DIIS     0.80E-01    2.9     0.00002999     -1636.6896555587 -5.83E-06
    41 OT DIIS     0.80E-01    2.9     0.00001179     -1636.6897227234 -6.72E-05
    42 OT DIIS     0.80E-01    2.9     0.00001193     -1636.6897675283 -4.48E-05
    43 OT SD       0.80E-01    2.9     0.00001174     -1636.6898408041 -7.33E-05
    44 OT SD       0.80E-01    2.9     0.00001225     -1636.6898540438 -1.32E-05
    45 OT SD       0.80E-01    2.9     0.00001821     -1636.6898656633 -1.16E-05
    46 OT SD       0.80E-01    2.9     0.00005682     -1636.6898509373  1.47E-05
    47 OT DIIS     0.80E-01    2.9     0.00022389     -1636.6894099939  4.41E-04
    48 OT SD       0.80E-01    2.9     0.00001169     -1636.6897463613 -3.36E-04
    49 OT SD       0.80E-01    2.9     0.00001246     -1636.6897593494 -1.30E-05
    50 OT SD       0.80E-01    2.9     0.00002151     -1636.6897695229 -1.02E-05
    51 OT SD       0.80E-01    2.9     0.00007490     -1636.6897335045  3.60E-05
    52 OT DIIS     0.80E-01    2.9     0.00030525     -1636.6889152044  8.18E-04
    53 OT DIIS     0.80E-01    2.9     0.00001177     -1636.6897435168 -8.28E-04
    54 OT SD       0.80E-01    2.9     0.00001164     -1636.6897969236 -5.34E-05
    55 OT SD       0.80E-01    3.0     0.00001220     -1636.6898099129 -1.30E-05
    56 OT SD       0.80E-01    3.0     0.00001887     -1636.6898210569 -1.11E-05
    57 OT SD       0.80E-01    2.9     0.00006196     -1636.6898011599  1.99E-05
    58 OT DIIS     0.80E-01    2.9     0.00025370     -1636.6892455581  5.56E-04
    59 OT SD       0.80E-01    3.0     0.00001164     -1636.6896643195 -4.19E-04
    60 OT DIIS     0.80E-01    2.9     0.00001255     -1636.6896771457 -1.28E-05
    61 OT SD       0.80E-01    2.9     0.00001165     -1636.6896878123 -1.07E-05
    62 OT SD       0.80E-01    2.9     0.00001208     -1636.6897007988 -1.30E-05
    63 OT SD       0.80E-01    2.9     0.00001770     -1636.6897122439 -1.14E-05
    64 OT SD       0.80E-01    2.9     0.00005659     -1636.6896981294  1.41E-05
    65 OT DIIS     0.80E-01    2.9     0.00023412     -1636.6892313533  4.67E-04
    66 OT DIIS     0.80E-01    2.9     0.00001172     -1636.6896333950 -4.02E-04
    67 OT SD       0.80E-01    2.9     0.00001175     -1636.6897628211 -1.29E-04
    68 OT SD       0.80E-01    2.9     0.00001514     -1636.6897746348 -1.18E-05
    69 OT DIIS     0.80E-01    2.9     0.00004032     -1636.6897736629  9.72E-07
    70 OT SD       0.80E-01    2.9     0.00001171     -1636.6898026056 -2.89E-05
    71 OT SD       0.80E-01    2.9     0.00001652     -1636.6898135339 -1.09E-05
    72 OT SD       0.80E-01    2.9     0.00004825     -1636.6898054740  8.06E-06
    73 OT DIIS     0.80E-01    2.9     0.00018623     -1636.6895018433  3.04E-04
    74 OT DIIS     0.80E-01    2.9     0.00001107     -1636.6899739103 -4.72E-04
    75 OT DIIS     0.80E-01    2.9     0.00001133     -1636.6899908708 -1.70E-05
    76 OT DIIS     0.80E-01    2.9     0.00001093     -1636.6900411281 -5.03E-05
    77 OT DIIS     0.80E-01    3.0     0.00001088     -1636.6900485593 -7.43E-06
    78 OT SD       0.80E-01    2.9     0.00001087     -1636.6900507418 -2.18E-06
    79 OT SD       0.80E-01    3.0     0.00001123     -1636.6900621442 -1.14E-05
    80 OT SD       0.80E-01    2.9     0.00001590     -1636.6900724776 -1.03E-05
    81 OT SD       0.80E-01    2.9     0.00004933     -1636.6900635436  8.93E-06
    82 OT DIIS     0.80E-01    2.9     0.00020197     -1636.6897160338  3.48E-04
    83 OT SD       0.80E-01    2.9     0.00001075     -1636.6899752081 -2.59E-04
    84 OT SD       0.80E-01    2.9     0.00001132     -1636.6899862209 -1.10E-05
    85 OT SD       0.80E-01    2.9     0.00001831     -1636.6899953154 -9.09E-06
    86 OT SD       0.80E-01    2.9     0.00006142     -1636.6899735202  2.18E-05
    87 OT DIIS     0.80E-01    3.0     0.00024897     -1636.6894312939  5.42E-04
    88 OT DIIS     0.80E-01    3.0     0.00001147     -1636.6899642251 -5.33E-04
    89 OT SD       0.80E-01    2.9     0.00001074     -1636.6900061034 -4.19E-05
    90 OT SD       0.80E-01    2.9     0.00001162     -1636.6900170220 -1.09E-05
    91 OT SD       0.80E-01    2.9     0.00002060     -1636.6900253017 -8.28E-06
    92 OT SD       0.80E-01    2.9     0.00006998     -1636.6899925479  3.28E-05
    93 OT DIIS     0.80E-01    2.9     0.00027639     -1636.6893096841  6.83E-04
    94 OT SD       0.80E-01    3.0     0.00001093     -1636.6899036081 -5.94E-04
    95 OT SD       0.80E-01    3.4     0.00001514     -1636.6899132488 -9.64E-06
    96 OT SD       0.80E-01    2.9     0.00004282     -1636.6899078771  5.37E-06
    97 OT DIIS     0.80E-01    3.1     0.00016298     -1636.6896756547  2.32E-04
    98 OT DIIS     0.80E-01    3.1     0.00001118     -1636.6896862983 -1.06E-05
    99 OT SD       0.80E-01    3.3     0.00001083     -1636.6898832322 -1.97E-04
   100 OT SD       0.80E-01    3.2     0.00001628     -1636.6898921805 -8.95E-06
   101 OT SD       0.80E-01    3.1     0.00005151     -1636.6898795541  1.26E-05
   102 OT DIIS     0.80E-01    3.2     0.00020681     -1636.6895080517  3.72E-04
   103 OT SD       0.80E-01    3.1     0.00001049     -1636.6898503750 -3.42E-04
   104 OT SD       0.80E-01    3.1     0.00001322     -1636.6898600189 -9.64E-06
   105 OT SD       0.80E-01    3.1     0.00003494     -1636.6898602068 -1.88E-07
   106 OT DIIS     0.80E-01    3.1     0.00013730     -1636.6897030118  1.57E-04
   107 OT DIIS     0.80E-01    3.1     0.00001061     -1636.6897132975 -1.03E-05
   108 OT SD       0.80E-01    3.1     0.00001036     -1636.6898404171 -1.27E-04
   109 OT SD       0.80E-01    3.1     0.00001155     -1636.6898502500 -9.83E-06
   110 OT SD       0.80E-01    3.1     0.00002147     -1636.6898569650 -6.71E-06
   111 OT DIIS     0.80E-01    3.1     0.00007222     -1636.6898195671  3.74E-05
   112 OT SD       0.80E-01    3.2     0.00001033     -1636.6897882712  3.13E-05
   113 OT SD       0.80E-01    3.1     0.00001253     -1636.6897977286 -9.46E-06
   114 OT SD       0.80E-01    3.2     0.00002986     -1636.6898003296 -2.60E-06
   115 OT DIIS     0.80E-01    3.3     0.00011051     -1636.6896990276  1.01E-04
   116 OT DIIS     0.80E-01    3.1     0.00001049     -1636.6895894866  1.10E-04
   117 OT SD       0.80E-01    3.1     0.00001023     -1636.6897693196 -1.80E-04
   118 OT SD       0.80E-01    3.4     0.00001231     -1636.6897786241 -9.30E-06
   119 OT SD       0.80E-01    3.1     0.00002982     -1636.6897812681 -2.64E-06
   120 OT DIIS     0.80E-01    3.1     0.00011577     -1636.6896726051  1.09E-04
   121 OT SD       0.80E-01    3.2     0.00001011     -1636.6897694094 -9.68E-05
   122 OT SD       0.80E-01    3.2     0.00001184     -1636.6897787449 -9.34E-06
   123 OT SD       0.80E-01    3.2     0.00002783     -1636.6897823831 -3.64E-06
   124 OT DIIS     0.80E-01    3.3     0.00010813     -1636.6896891059  9.33E-05
   125 OT DIIS     0.80E-01    3.3     0.00001078     -1636.6898138592 -1.25E-04
   126 OT DIIS     0.80E-01    3.3     0.00001011     -1636.6898158511 -1.99E-06
   127 OT DIIS     0.80E-01    3.2     0.00001012     -1636.6899644232 -1.49E-04
   128 OT DIIS     0.80E-01    3.1     0.00000993     -1636.6899648666 -4.43E-07

  *** SCF run converged in   128 steps ***


  Electronic density on regular grids:       -895.9999995989        0.0000004011
  Core density on regular grids:              895.9999999260       -0.0000000740
  Total charge density on r-space grids:        0.0000003272
  Total charge density g-space grids:           0.0000003272

  Overlap energy of the core charge distribution:               0.00005624816377
  Self energy of the core charge distribution:              -3531.67332257831958
  Core Hamiltonian energy:                                   1018.49639706746643
  Hartree energy:                                            1267.27240957073059
  Exchange-correlation energy:                               -389.95357519453285
  Dispersion energy:                                           -0.83192998012951

  Total energy:                                             -1636.68996486662104

  outer SCF iter =    2 RMS gradient =   0.99E-05 energy =      -1636.6899648666
  outer SCF loop converged in   2 iterations or  328 steps


 ENERGY| Total FORCE_EVAL ( QS ) energy [a.u.]:            -1636.689996403052874

 --------  Informations at step =     7 ------------
  Optimization Method        =                 BFGS
  Total Energy               =     -1636.6899964031
  Real energy change         =        -0.0346112943
  Predicted change in energy =        -0.0832445201
  Scaling factor             =         0.4834064417
  Step size                  =         0.3788530124
  Trust radius               =         0.4724315332
  Decrease in energy         =                   NO
  Used time                  =              996.927

  Convergence check :
  Max. step size             =         0.3788530124
  Conv. limit for step size  =         0.0030000000
  Convergence in step size   =                   NO
  RMS step size              =         0.0381756943
  Conv. limit for RMS step   =         0.0015000000
  Convergence in RMS step    =                   NO
  Max. gradient              =         0.0765486249
  Conv. limit for gradients  =         0.0004500000
  Conv. for gradients        =                   NO
  RMS gradient               =         0.0070788590
  Conv. limit for RMS grad.  =         0.0003000000
  Conv. for gradients        =                   NO
 ---------------------------------------------------

 --------------------------
 OPTIMIZATION STEP:      8
 --------------------------

  Step is scaled; Scaling factor =  0.46543

 Number of electrons:                                                        896
 Number of occupied orbitals:                                                448
 Number of molecular orbitals:                                               448

 Number of orbital functions:                                               2720
 Number of independent orbital functions:                                   2720

 Extrapolation method: ASPC


 SCF WAVEFUNCTION OPTIMIZATION

  ----------------------------------- OT ---------------------------------------
  Minimizer      : DIIS                : direct inversion
                                         in the iterative subspace
                                         using   7 DIIS vectors
                                         safer DIIS on
  Preconditioner : FULL_SINGLE_INVERSE : inversion of 
                                         H + eS - 2*(Sc)(c^T*H*c+const)(Sc)^T
  Precond_solver : DEFAULT
  stepsize       :    0.08000000                  energy_gap     :    0.08000000
  eps_taylor     :   0.10000E-15                  max_taylor     :             4
  ----------------------------------- OT ---------------------------------------

  Step     Update method      Time    Convergence         Total energy    Change
  ------------------------------------------------------------------------------
     1 OT DIIS     0.80E-01    4.4     0.00187433     -1636.3552969222 -1.64E+03
     2 OT DIIS     0.80E-01    3.3     0.00123163     -1636.5614658629 -2.06E-01
     3 OT DIIS     0.80E-01    3.2     0.00124603     -1636.6131346973 -5.17E-02
     4 OT DIIS     0.80E-01    3.2     0.00110319     -1636.6546175362 -4.15E-02
     5 OT DIIS     0.80E-01    3.3     0.00101017     -1636.6760287360 -2.14E-02
     6 OT DIIS     0.80E-01    3.2     0.00066446     -1636.6931098418 -1.71E-02
     7 OT DIIS     0.80E-01    3.2     0.00049110     -1636.7010854309 -7.98E-03
     8 OT DIIS     0.80E-01    3.2     0.00026055     -1636.7064427501 -5.36E-03
     9 OT DIIS     0.80E-01    3.3     0.00022886     -1636.7092272797 -2.78E-03
    10 OT DIIS     0.80E-01    3.3     0.00019663     -1636.7112351750 -2.01E-03
    11 OT DIIS     0.80E-01    3.2     0.00014727     -1636.7131524469 -1.92E-03
    12 OT DIIS     0.80E-01    3.2     0.00018653     -1636.7147605454 -1.61E-03
    13 OT DIIS     0.80E-01    3.2     0.00011681     -1636.7161545329 -1.39E-03
    14 OT DIIS     0.80E-01    3.3     0.00009977     -1636.7176567649 -1.50E-03
    15 OT DIIS     0.80E-01    3.2     0.00010580     -1636.7186197353 -9.63E-04
    16 OT DIIS     0.80E-01    3.5     0.00008629     -1636.7194230050 -8.03E-04
    17 OT DIIS     0.80E-01    3.3     0.00008716     -1636.7200079207 -5.85E-04
    18 OT DIIS     0.80E-01    3.3     0.00007341     -1636.7204964078 -4.88E-04
    19 OT DIIS     0.80E-01    3.3     0.00006147     -1636.7208734042 -3.77E-04
    20 OT DIIS     0.80E-01    3.3     0.00005963     -1636.7212681083 -3.95E-04
    21 OT DIIS     0.80E-01    3.3     0.00005434     -1636.7215442012 -2.76E-04
    22 OT DIIS     0.80E-01    3.3     0.00005037     -1636.7218907475 -3.47E-04
    23 OT DIIS     0.80E-01    3.2     0.00005100     -1636.7221921645 -3.01E-04
    24 OT DIIS     0.80E-01    3.3     0.00004485     -1636.7224821157 -2.90E-04
    25 OT DIIS     0.80E-01    3.1     0.00004374     -1636.7227474569 -2.65E-04
    26 OT DIIS     0.80E-01    3.1     0.00004160     -1636.7230361330 -2.89E-04
    27 OT DIIS     0.80E-01    3.1     0.00004147     -1636.7233445095 -3.08E-04
    28 OT DIIS     0.80E-01    3.1     0.00004315     -1636.7236843071 -3.40E-04
    29 OT DIIS     0.80E-01    3.1     0.00004131     -1636.7239729620 -2.89E-04
    30 OT DIIS     0.80E-01    3.1     0.00003452     -1636.7243344333 -3.61E-04
    31 OT DIIS     0.80E-01    3.1     0.00003387     -1636.7246422907 -3.08E-04
    32 OT DIIS     0.80E-01    3.0     0.00003109     -1636.7249118237 -2.70E-04
    33 OT DIIS     0.80E-01    3.1     0.00003145     -1636.7251531570 -2.41E-04
    34 OT DIIS     0.80E-01    3.1     0.00003036     -1636.7253451790 -1.92E-04
    35 OT DIIS     0.80E-01    3.0     0.00002811     -1636.7255061450 -1.61E-04
    36 OT DIIS     0.80E-01    3.3     0.00002594     -1636.7256385469 -1.32E-04
    37 OT DIIS     0.80E-01    3.4     0.00002539     -1636.7257365331 -9.80E-05
    38 OT DIIS     0.80E-01    3.5     0.00002365     -1636.7258239168 -8.74E-05
    39 OT DIIS     0.80E-01    3.5     0.00002306     -1636.7258990082 -7.51E-05
    40 OT DIIS     0.80E-01    3.4     0.00002263     -1636.7259567252 -5.77E-05
    41 OT DIIS     0.80E-01    3.5     0.00002235     -1636.7260162422 -5.95E-05
    42 OT DIIS     0.80E-01    3.3     0.00002203     -1636.7260840898 -6.78E-05
    43 OT DIIS     0.80E-01    3.3     0.00002227     -1636.7261612439 -7.72E-05
    44 OT DIIS     0.80E-01    3.4     0.00002243     -1636.7262432094 -8.20E-05
    45 OT DIIS     0.80E-01    3.3     0.00002171     -1636.7263650647 -1.22E-04
    46 OT DIIS     0.80E-01    3.2     0.00002129     -1636.7265163587 -1.51E-04
    47 OT DIIS     0.80E-01    3.1     0.00002079     -1636.7266766822 -1.60E-04
    48 OT DIIS     0.80E-01    3.2     0.00001949     -1636.7267809208 -1.04E-04
    49 OT DIIS     0.80E-01    3.2     0.00001825     -1636.7268464659 -6.55E-05
    50 OT DIIS     0.80E-01    3.2     0.00001756     -1636.7268985060 -5.20E-05
    51 OT DIIS     0.80E-01    3.1     0.00001744     -1636.7269496228 -5.11E-05
    52 OT DIIS     0.80E-01    3.3     0.00001727     -1636.7269948669 -4.52E-05
    53 OT DIIS     0.80E-01    3.2     0.00001694     -1636.7270423872 -4.75E-05
    54 OT DIIS     0.80E-01    3.2     0.00001671     -1636.7270785416 -3.62E-05
    55 OT DIIS     0.80E-01    3.3     0.00001669     -1636.7271001481 -2.16E-05
    56 OT DIIS     0.80E-01    3.2     0.00001674     -1636.7271111946 -1.10E-05
    57 OT DIIS     0.80E-01    3.3     0.00001668     -1636.7271240645 -1.29E-05
    58 OT DIIS     0.80E-01    3.2     0.00001665     -1636.7271417044 -1.76E-05
    59 OT SD       0.80E-01    3.2     0.00001666     -1636.7271495350 -7.83E-06
    60 OT SD       0.80E-01    3.3     0.00001687     -1636.7271765134 -2.70E-05
    61 OT SD       0.80E-01    3.3     0.00002030     -1636.7272025967 -2.61E-05
    62 OT SD       0.80E-01    3.3     0.00005846     -1636.7272053128 -2.72E-06
    63 OT DIIS     0.80E-01    3.1     0.00028320     -1636.7266197096  5.86E-04
    64 OT SD       0.80E-01    3.1     0.00001666     -1636.7270377413 -4.18E-04
    65 OT SD       0.80E-01    3.1     0.00002028     -1636.7270631643 -2.54E-05
    66 OT SD       0.80E-01    3.7     0.00006402     -1636.7270609378  2.23E-06
    67 OT DIIS     0.80E-01    3.4     0.00032806     -1636.7262876834  7.73E-04
    68 OT DIIS     0.80E-01    3.3     0.00001867     -1636.7268287179 -5.41E-04
    69 OT SD       0.80E-01    3.3     0.00001727     -1636.7270932372 -2.65E-04
    70 OT SD       0.80E-01    3.3     0.00002892     -1636.7271141017 -2.09E-05
    71 OT DIIS     0.80E-01    3.2     0.00010608     -1636.7270473029  6.68E-05
    72 OT SD       0.80E-01    3.2     0.00001722     -1636.7271006022 -5.33E-05
    73 OT SD       0.80E-01    3.2     0.00003156     -1636.7271194007 -1.88E-05
    74 OT SD       0.80E-01    3.2     0.00012225     -1636.7270212533  9.81E-05
    75 OT DIIS     0.80E-01    3.1     0.00055595     -1636.7245028592  2.52E-03
    76 OT SD       0.80E-01    3.3     0.00001619     -1636.7271287793 -2.63E-03
    77 OT SD       0.80E-01    3.1     0.00002151     -1636.7271517396 -2.30E-05
    78 OT DIIS     0.80E-01    3.1     0.00007432     -1636.7271358929  1.58E-05
    79 OT DIIS     0.80E-01    3.1     0.00001589     -1636.7271302715  5.62E-06
    80 OT DIIS     0.80E-01    3.3     0.00001597     -1636.7271605288 -3.03E-05
    81 OT DIIS     0.80E-01    3.3     0.00001571     -1636.7271820027 -2.15E-05
    82 OT DIIS     0.80E-01    3.2     0.00001608     -1636.7271987906 -1.68E-05
    83 OT DIIS     0.80E-01    3.2     0.00001570     -1636.7272123287 -1.35E-05
    84 OT DIIS     0.80E-01    3.2     0.00001544     -1636.7272657674 -5.34E-05
    85 OT DIIS     0.80E-01    3.3     0.00001558     -1636.7272820232 -1.63E-05
    86 OT SD       0.80E-01    3.2     0.00001540     -1636.7273378032 -5.58E-05
    87 OT SD       0.80E-01    3.2     0.00001736     -1636.7273600827 -2.23E-05
    88 OT SD       0.80E-01    3.2     0.00004249     -1636.7273709003 -1.08E-05
    89 OT DIIS     0.80E-01    3.2     0.00020257     -1636.7270836931  2.87E-04
    90 OT SD       0.80E-01    3.2     0.00001558     -1636.7272912529 -2.08E-04
    91 OT SD       0.80E-01    3.2     0.00002123     -1636.7273120508 -2.08E-05
    92 OT SD       0.80E-01    3.4     0.00007353     -1636.7272943044  1.77E-05
    93 OT DIIS     0.80E-01    3.2     0.00036389     -1636.7263034424  9.91E-04
    94 OT SD       0.80E-01    3.3     0.00001498     -1636.7271028327 -7.99E-04
    95 OT SD       0.80E-01    3.1     0.00001687     -1636.7271239251 -2.11E-05
    96 OT SD       0.80E-01    3.3     0.00004402     -1636.7271324455 -8.52E-06
    97 OT DIIS     0.80E-01    3.3     0.00021751     -1636.7268002784  3.32E-04
    98 OT DIIS     0.80E-01    3.5     0.00001497     -1636.7268111037 -1.08E-05
    99 OT SD       0.80E-01    3.2     0.00001501     -1636.7269552292 -1.44E-04
   100 OT SD       0.80E-01    3.2     0.00001919     -1636.7269739313 -1.87E-05
   101 OT SD       0.80E-01    3.0     0.00005282     -1636.7269723332  1.60E-06
   102 OT DIIS     0.80E-01    3.0     0.00023665     -1636.7265466912  4.26E-04
   103 OT DIIS     0.80E-01    3.3     0.00001526     -1636.7268359056 -2.89E-04
   104 OT SD       0.80E-01    3.2     0.00001474     -1636.7269155121 -7.96E-05
   105 OT SD       0.80E-01    3.2     0.00002031     -1636.7269338005 -1.83E-05
   106 OT SD       0.80E-01    3.3     0.00006745     -1636.7269186113  1.52E-05
   107 OT DIIS     0.80E-01    3.2     0.00032008     -1636.7261348857  7.84E-04
   108 OT SD       0.80E-01    3.2     0.00001446     -1636.7269194244 -7.85E-04
   109 OT SD       0.80E-01    3.3     0.00001654     -1636.7269389245 -1.95E-05
   110 OT SD       0.80E-01    3.3     0.00004275     -1636.7269464344 -7.51E-06
   111 OT DIIS     0.80E-01    3.3     0.00020531     -1636.7266460473  3.00E-04
   112 OT DIIS     0.80E-01    3.3     0.00001470     -1636.7268877385 -2.42E-04
   113 OT SD       0.80E-01    3.3     0.00001458     -1636.7269116009 -2.39E-05
   114 OT SD       0.80E-01    3.2     0.00001814     -1636.7269305217 -1.89E-05
   115 OT SD       0.80E-01    3.3     0.00005053     -1636.7269307245 -2.03E-07
   116 OT DIIS     0.80E-01    3.5     0.00022233     -1636.7265473430  3.83E-04
   117 OT SD       0.80E-01    3.4     0.00001442     -1636.7269224421 -3.75E-04
   118 OT SD       0.80E-01    3.2     0.00001597     -1636.7269420831 -1.96E-05
   119 OT SD       0.80E-01    3.1     0.00003812     -1636.7269527207 -1.06E-05
   120 OT DIIS     0.80E-01    3.3     0.00018522     -1636.7267173843  2.35E-04
   121 OT SD       0.80E-01    3.2     0.00001475     -1636.7268687682 -1.51E-04
   122 OT SD       0.80E-01    3.5     0.00002086     -1636.7268866038 -1.78E-05
   123 OT SD       0.80E-01    3.2     0.00007114     -1636.7268672959  1.93E-05
   124 OT DIIS     0.80E-01    3.1     0.00034330     -1636.7259733821  8.94E-04
   125 OT DIIS     0.80E-01    3.3     0.00001459     -1636.7266303700 -6.57E-04
   126 OT SD       0.80E-01    3.3     0.00001430     -1636.7268072632 -1.77E-04
   127 OT SD       0.80E-01    3.2     0.00001497     -1636.7268265456 -1.93E-05
   128 OT SD       0.80E-01    3.3     0.00002101     -1636.7268438235 -1.73E-05
   129 OT DIIS     0.80E-01    3.3     0.00006549     -1636.7268290038  1.48E-05
   130 OT DIIS     0.80E-01    3.3     0.00001417     -1636.7268368470 -7.84E-06
   131 OT SD       0.80E-01    3.2     0.00001416     -1636.7268369710 -1.24E-07
   132 OT DIIS     0.80E-01    3.2     0.00001432     -1636.7268564700 -1.95E-05
   133 OT DIIS     0.80E-01    3.2     0.00001418     -1636.7268567403 -2.70E-07
   134 OT SD       0.80E-01    3.2     0.00001422     -1636.7268775878 -2.08E-05
   135 OT SD       0.80E-01    3.2     0.00001524     -1636.7268969013 -1.93E-05
   136 OT SD       0.80E-01    3.2     0.00003066     -1636.7269108195 -1.39E-05
   137 OT DIIS     0.80E-01    3.2     0.00014044     -1636.7267828911  1.28E-04
   138 OT SD       0.80E-01    3.3     0.00001436     -1636.7267758699  7.02E-06
   139 OT SD       0.80E-01    3.2     0.00001680     -1636.7267944158 -1.85E-05
   140 OT SD       0.80E-01    3.2     0.00003865     -1636.7268022689 -7.85E-06
   141 OT DIIS     0.80E-01    3.2     0.00015742     -1636.7266153859  1.87E-04
   142 OT DIIS     0.80E-01    3.4     0.00001421     -1636.7266103839  5.00E-06
   143 OT DIIS     0.80E-01    3.4     0.00001412     -1636.7267495684 -1.39E-04
   144 OT SD       0.80E-01    3.3     0.00001413     -1636.7267949364 -4.54E-05
   145 OT DIIS     0.80E-01    3.3     0.00001475     -1636.7268140028 -1.91E-05
   146 OT SD       0.80E-01    3.3     0.00001417     -1636.7268281607 -1.42E-05
   147 OT SD       0.80E-01    3.3     0.00001500     -1636.7268471620 -1.90E-05
   148 OT SD       0.80E-01    3.2     0.00002470     -1636.7268629372 -1.58E-05
   149 OT DIIS     0.80E-01    3.2     0.00009498     -1636.7268120008  5.09E-05
   150 OT DIIS     0.80E-01    3.4     0.00001425     -1636.7267788025  3.32E-05
   151 OT SD       0.80E-01    3.3     0.00001418     -1636.7268390466 -6.02E-05
   152 OT SD       0.80E-01    3.3     0.00001702     -1636.7268576334 -1.86E-05
   153 OT SD       0.80E-01    3.2     0.00005262     -1636.7268578622 -2.29E-07
   154 OT DIIS     0.80E-01    3.2     0.00027190     -1636.7263326376  5.25E-04
   155 OT SD       0.80E-01    3.3     0.00001423     -1636.7267747449 -4.42E-04
   156 OT SD       0.80E-01    3.3     0.00001683     -1636.7267931290 -1.84E-05
   157 OT SD       0.80E-01    3.3     0.00004117     -1636.7267991887 -6.06E-06
   158 OT DIIS     0.80E-01    3.3     0.00016890     -1636.7265768720  2.22E-04
   159 OT DIIS     0.80E-01    3.5     0.00001408     -1636.7266423897 -6.55E-05
   160 OT DIIS     0.80E-01    3.2     0.00001404     -1636.7267545893 -1.12E-04
   161 OT SD       0.80E-01    3.2     0.00001407     -1636.7267679884 -1.34E-05
   162 OT SD       0.80E-01    3.2     0.00001514     -1636.7267867350 -1.87E-05
   163 OT DIIS     0.80E-01    3.2     0.00002757     -1636.7268008623 -1.41E-05
   164 OT SD       0.80E-01    3.2     0.00001401     -1636.7268144344 -1.36E-05
   165 OT SD       0.80E-01    3.3     0.00001434     -1636.7268334564 -1.90E-05
   166 OT SD       0.80E-01    3.6     0.00002113     -1636.7268506957 -1.72E-05
   167 OT SD       0.80E-01    3.5     0.00008390     -1636.7268185316  3.22E-05
   168 OT DIIS     0.80E-01    3.4     0.00043657     -1636.7254140000  1.40E-03
   169 OT DIIS     0.80E-01    3.3     0.00001402     -1636.7266857132 -1.27E-03
   170 OT DIIS     0.80E-01    3.2     0.00001405     -1636.7266967641 -1.11E-05
   171 OT DIIS     0.80E-01    3.3     0.00001422     -1636.7267146920 -1.79E-05
   172 OT DIIS     0.80E-01    3.5     0.00001405     -1636.7267258487 -1.12E-05
   173 OT DIIS     0.80E-01    3.3     0.00001406     -1636.7267426904 -1.68E-05
   174 OT DIIS     0.80E-01    3.3     0.00001407     -1636.7267978621 -5.52E-05
   175 OT DIIS     0.80E-01    3.2     0.00001410     -1636.7268398045 -4.19E-05
   176 OT SD       0.80E-01    3.3     0.00001400     -1636.7268753511 -3.55E-05
   177 OT SD       0.80E-01    3.3     0.00001532     -1636.7268939634 -1.86E-05
   178 OT SD       0.80E-01    3.3     0.00003485     -1636.7269052660 -1.13E-05
   179 OT DIIS     0.80E-01    3.2     0.00016936     -1636.7267131155  1.92E-04
   180 OT SD       0.80E-01    3.3     0.00001418     -1636.7267891998 -7.61E-05
   181 OT SD       0.80E-01    3.3     0.00001714     -1636.7268068628 -1.77E-05
   182 OT SD       0.80E-01    3.3     0.00004386     -1636.7268109174 -4.05E-06
   183 OT DIIS     0.80E-01    3.3     0.00019667     -1636.7265251538  2.86E-04
   184 OT DIIS     0.80E-01    3.3     0.00001417     -1636.7264116050  1.14E-04
   185 OT DIIS     0.80E-01    3.4     0.00001403     -1636.7267926840 -3.81E-04
   186 OT SD       0.80E-01    3.4     0.00001388     -1636.7268365112 -4.38E-05
   187 OT SD       0.80E-01    3.3     0.00001415     -1636.7268551919 -1.87E-05
   188 OT SD       0.80E-01    3.5     0.00001820     -1636.7268728436 -1.77E-05
   189 OT SD       0.80E-01    3.3     0.00005658     -1636.7268675662  5.28E-06
   190 OT DIIS     0.80E-01    3.3     0.00026969     -1636.7263201082  5.47E-04
   191 OT SD       0.80E-01    3.2     0.00001586     -1636.7266719109 -3.52E-04
   192 OT SD       0.80E-01    3.3     0.00003417     -1636.7266826619 -1.08E-05
   193 OT DIIS     0.80E-01    3.2     0.00014747     -1636.7265299679  1.53E-04
   194 OT SD       0.80E-01    3.1     0.00001407     -1636.7268308047 -3.01E-04
   195 OT SD       0.80E-01    3.2     0.00001721     -1636.7268487172 -1.79E-05
   196 OT DIIS     0.80E-01    3.5     0.00005150     -1636.7268483740  3.43E-07
   197 OT DIIS     0.80E-01    3.3     0.00001388     -1636.7268347691  1.36E-05
   198 OT DIIS     0.80E-01    3.3     0.00001389     -1636.7268348394 -7.03E-08
   199 OT SD       0.80E-01    3.2     0.00001391     -1636.7268679417 -3.31E-05
   200 OT SD       0.80E-01    3.3     0.00001414     -1636.7268867305 -1.88E-05

  Leaving inner SCF loop after reaching   200 steps.


  Electronic density on regular grids:       -896.0000004694       -0.0000004694
  Core density on regular grids:              895.9999999254       -0.0000000746
  Total charge density on r-space grids:       -0.0000005440
  Total charge density g-space grids:          -0.0000005440

  Overlap energy of the core charge distribution:               0.00005201503349
  Self energy of the core charge distribution:              -3531.67332257831958
  Core Hamiltonian energy:                                   1017.69714695333710
  Hartree energy:                                            1267.80857224889155
  Exchange-correlation energy:                               -389.72722477312226
  Dispersion energy:                                           -0.83211059628320

  Total energy:                                             -1636.72688673046332

  outer SCF iter =    1 RMS gradient =   0.14E-04 energy =      -1636.7268867305

  ----------------------------------- OT ---------------------------------------
  Minimizer      : DIIS                : direct inversion
                                         in the iterative subspace
                                         using   7 DIIS vectors
                                         safer DIIS on
  Preconditioner : FULL_SINGLE_INVERSE : inversion of 
                                         H + eS - 2*(Sc)(c^T*H*c+const)(Sc)^T
  Precond_solver : DEFAULT
  stepsize       :    0.08000000                  energy_gap     :    0.08000000
  eps_taylor     :   0.10000E-15                  max_taylor     :             4
  ----------------------------------- OT ---------------------------------------

  Step     Update method      Time    Convergence         Total energy    Change
  ------------------------------------------------------------------------------
     1 OT DIIS     0.80E-01    9.0     0.00001908     -1636.7269045802 -1.78E-05
     2 OT DIIS     0.80E-01    3.1     0.00003192     -1636.7269232083 -1.86E-05
     3 OT DIIS     0.80E-01    3.2     0.00001666     -1636.7269392416 -1.60E-05
     4 OT DIIS     0.80E-01    3.6     0.00001655     -1636.7269492625 -1.00E-05
     5 OT DIIS     0.80E-01    3.2     0.00001655     -1636.7269775963 -2.83E-05
     6 OT SD       0.80E-01    3.2     0.00001655     -1636.7269796444 -2.05E-06
     7 OT SD       0.80E-01    3.2     0.00001661     -1636.7270063341 -2.67E-05
     8 OT SD       0.80E-01    3.2     0.00001688     -1636.7270330387 -2.67E-05
     9 OT SD       0.80E-01    3.2     0.00001910     -1636.7270590479 -2.60E-05
    10 OT SD       0.80E-01    3.2     0.00003411     -1636.7270768754 -1.78E-05
    11 OT SD       0.80E-01    3.2     0.00009683     -1636.7270091793  6.77E-05
    12 OT DIIS     0.80E-01    3.3     0.00030758     -1636.7260532945  9.56E-04
    13 OT SD       0.80E-01    3.2     0.00001633     -1636.7266173770 -5.64E-04
    14 OT SD       0.80E-01    3.1     0.00001630     -1636.7266429132 -2.55E-05
    15 OT SD       0.80E-01    3.2     0.00001678     -1636.7266678576 -2.49E-05
    16 OT SD       0.80E-01    3.2     0.00001990     -1636.7266912702 -2.34E-05
    17 OT SD       0.80E-01    3.2     0.00003622     -1636.7267045685 -1.33E-05
    18 OT DIIS     0.80E-01    3.2     0.00009739     -1636.7266303982  7.42E-05
    19 OT SD       0.80E-01    3.1     0.00001592     -1636.7269370180 -3.07E-04
    20 OT SD       0.80E-01    3.3     0.00001620     -1636.7269615472 -2.45E-05
    21 OT SD       0.80E-01    3.1     0.00001822     -1636.7269854878 -2.39E-05
    22 OT SD       0.80E-01    3.2     0.00003154     -1636.7270026435 -1.72E-05
    23 OT SD       0.80E-01    3.1     0.00008796     -1636.7269497606  5.29E-05
    24 OT DIIS     0.80E-01    3.2     0.00028017     -1636.7261642801  7.85E-04
    25 OT SD       0.80E-01    3.2     0.00001607     -1636.7265193407 -3.55E-04
    26 OT DIIS     0.80E-01    3.1     0.00001814     -1636.7265425374 -2.32E-05
    27 OT DIIS     0.80E-01    3.2     0.00001576     -1636.7265939262 -5.14E-05
    28 OT SD       0.80E-01    3.3     0.00001569     -1636.7266189398 -2.50E-05
    29 OT DIIS     0.80E-01    3.4     0.00001656     -1636.7266420738 -2.31E-05
    30 OT DIIS     0.80E-01    3.2     0.00001612     -1636.7267627150 -1.21E-04
    31 OT SD       0.80E-01    3.2     0.00001565     -1636.7268523688 -8.97E-05
    32 OT SD       0.80E-01    3.4     0.00001581     -1636.7268760830 -2.37E-05
    33 OT SD       0.80E-01    3.4     0.00001673     -1636.7268995949 -2.35E-05
    34 OT SD       0.80E-01    3.1     0.00002269     -1636.7269206903 -2.11E-05
    35 OT SD       0.80E-01    3.2     0.00005047     -1636.7269199532  7.37E-07
    36 OT SD       0.80E-01    3.1     0.00014478     -1636.7267215979  1.98E-04
    37 OT DIIS     0.80E-01    3.1     0.00043960     -1636.7246852816  2.04E-03
    38 OT DIIS     0.80E-01    3.1     0.00001689     -1636.7262921679 -1.61E-03
    39 OT DIIS     0.80E-01    3.1     0.00001791     -1636.7263978359 -1.06E-04
    40 OT DIIS     0.80E-01    3.1     0.00001652     -1636.7266564424 -2.59E-04
    41 OT DIIS     0.80E-01    3.1     0.00001625     -1636.7270045179 -3.48E-04
    42 OT DIIS     0.80E-01    3.1     0.00001630     -1636.7270096966 -5.18E-06
    43 OT SD       0.80E-01    3.1     0.00001627     -1636.7270462717 -3.66E-05
    44 OT SD       0.80E-01    3.1     0.00001682     -1636.7270714506 -2.52E-05
    45 OT SD       0.80E-01    3.1     0.00002006     -1636.7270954998 -2.40E-05
    46 OT SD       0.80E-01    3.3     0.00003653     -1636.7271095311 -1.40E-05
    47 OT SD       0.80E-01    3.3     0.00009617     -1636.7270379815  7.15E-05
    48 OT DIIS     0.80E-01    3.2     0.00028414     -1636.7262009856  8.37E-04
    49 OT DIIS     0.80E-01    3.5     0.00001654     -1636.7264435435 -2.43E-04
    50 OT DIIS     0.80E-01    3.1     0.00001617     -1636.7264880880 -4.45E-05
    51 OT DIIS     0.80E-01    3.1     0.00001613     -1636.7264995299 -1.14E-05
    52 OT SD       0.80E-01    3.1     0.00001573     -1636.7266602564 -1.61E-04
    53 OT SD       0.80E-01    3.1     0.00001701     -1636.7266824896 -2.22E-05
    54 OT DIIS     0.80E-01    3.1     0.00002509     -1636.7267009908 -1.85E-05
    55 OT DIIS     0.80E-01    3.2     0.00001542     -1636.7267874687 -8.65E-05
    56 OT SD       0.80E-01    3.1     0.00001538     -1636.7268121533 -2.47E-05
    57 OT SD       0.80E-01    3.1     0.00001552     -1636.7268350252 -2.29E-05
    58 OT SD       0.80E-01    3.1     0.00001622     -1636.7268577668 -2.27E-05
    59 OT SD       0.80E-01    3.1     0.00002083     -1636.7268788256 -2.11E-05
    60 OT SD       0.80E-01    3.1     0.00004511     -1636.7268831962 -4.37E-06
    61 OT SD       0.80E-01    3.1     0.00013451     -1636.7267197763  1.63E-04
    62 OT DIIS     0.80E-01    3.2     0.00042812     -1636.7248337580  1.89E-03
    63 OT DIIS     0.80E-01    3.0     0.00001721     -1636.7261778096 -1.34E-03
    64 OT DIIS     0.80E-01    3.1     0.00001719     -1636.7263900944 -2.12E-04
    65 OT DIIS     0.80E-01    3.0     0.00001632     -1636.7264810948 -9.10E-05
    66 OT DIIS     0.80E-01    3.3     0.00001677     -1636.7270453356 -5.64E-04
    67 OT DIIS     0.80E-01    3.3     0.00001671     -1636.7270868873 -4.16E-05
    68 OT SD       0.80E-01    3.2     0.00001655     -1636.7270990206 -1.21E-05
    69 OT SD       0.80E-01    3.3     0.00001751     -1636.7271240047 -2.50E-05
    70 OT SD       0.80E-01    3.2     0.00002166     -1636.7271473023 -2.33E-05
    71 OT SD       0.80E-01    3.2     0.00003829     -1636.7271595474 -1.22E-05
    72 OT SD       0.80E-01    3.2     0.00009251     -1636.7270929169  6.66E-05
    73 OT DIIS     0.80E-01    3.1     0.00025330     -1636.7264133939  6.80E-04
    74 OT SD       0.80E-01    3.2     0.00001686     -1636.7266495188 -2.36E-04
    75 OT SD       0.80E-01    3.2     0.00002628     -1636.7266672272 -1.77E-05
    76 OT SD       0.80E-01    3.3     0.00006850     -1636.7266424848  2.47E-05
    77 OT DIIS     0.80E-01    3.3     0.00021114     -1636.7261979642  4.45E-04
    78 OT DIIS     0.80E-01    3.2     0.00001913     -1636.7259535613  2.44E-04
    79 OT DIIS     0.80E-01    3.2     0.00001743     -1636.7268709175 -9.17E-04
    80 OT SD       0.80E-01    3.2     0.00001679     -1636.7270198003 -1.49E-04
    81 OT SD       0.80E-01    3.3     0.00002107     -1636.7270429584 -2.32E-05
    82 OT SD       0.80E-01    3.1     0.00004431     -1636.7270500837 -7.13E-06
    83 OT DIIS     0.80E-01    3.3     0.00012936     -1636.7269012287  1.49E-04
    84 OT SD       0.80E-01    3.2     0.00001685     -1636.7271417893 -2.41E-04
    85 OT SD       0.80E-01    3.3     0.00002008     -1636.7271666253 -2.48E-05
    86 OT SD       0.80E-01    3.3     0.00003959     -1636.7271794495 -1.28E-05
    87 OT SD       0.80E-01    3.1     0.00011635     -1636.7270680792  1.11E-04
    88 OT DIIS     0.80E-01    3.3     0.00037423     -1636.7256481409  1.42E-03
    89 OT SD       0.80E-01    3.2     0.00001640     -1636.7269271122 -1.28E-03
    90 OT SD       0.80E-01    3.2     0.00001946     -1636.7269501023 -2.30E-05
    91 OT SD       0.80E-01    3.2     0.00003734     -1636.7269624841 -1.24E-05
    92 OT SD       0.80E-01    3.3     0.00010769     -1636.7268685244  9.40E-05
    93 OT DIIS     0.80E-01    3.3     0.00034243     -1636.7256750659  1.19E-03
    94 OT DIIS     0.80E-01    3.4     0.00001608     -1636.7268660708 -1.19E-03
    95 OT SD       0.80E-01    3.3     0.00001595     -1636.7268939740 -2.79E-05
    96 OT SD       0.80E-01    3.3     0.00001775     -1636.7269173160 -2.33E-05
    97 OT SD       0.80E-01    3.7     0.00002992     -1636.7269345970 -1.73E-05
    98 OT DIIS     0.80E-01    3.3     0.00008167     -1636.7268914159  4.32E-05
    99 OT SD       0.80E-01    3.6     0.00001572     -1636.7268655412  2.59E-05
   100 OT SD       0.80E-01    3.2     0.00001612     -1636.7268892562 -2.37E-05
   101 OT SD       0.80E-01    3.1     0.00001899     -1636.7269119292 -2.27E-05
   102 OT SD       0.80E-01    3.1     0.00003537     -1636.7269251335 -1.32E-05
   103 OT DIIS     0.80E-01    3.2     0.00009743     -1636.7268503414  7.48E-05
   104 OT SD       0.80E-01    3.2     0.00001582     -1636.7268078719  4.25E-05
   105 OT SD       0.80E-01    3.1     0.00001771     -1636.7268307168 -2.28E-05
   106 OT SD       0.80E-01    3.1     0.00003051     -1636.7268470379 -1.63E-05
   107 OT SD       0.80E-01    3.1     0.00008422     -1636.7267987701  4.83E-05
   108 OT DIIS     0.80E-01    3.3     0.00026483     -1636.7260928237  7.06E-04
   109 OT DIIS     0.80E-01    3.2     0.00001586     -1636.7267790880 -6.86E-04
   110 OT SD       0.80E-01    3.1     0.00001561     -1636.7268236904 -4.46E-05
   111 OT SD       0.80E-01    3.1     0.00001611     -1636.7268470125 -2.33E-05
   112 OT SD       0.80E-01    3.1     0.00001955     -1636.7268690498 -2.20E-05
   113 OT SD       0.80E-01    3.2     0.00003806     -1636.7268797139 -1.07E-05
   114 OT DIIS     0.80E-01    3.1     0.00010676     -1636.7267849145  9.48E-05
   115 OT SD       0.80E-01    3.1     0.00001560     -1636.7267165179  6.84E-05
   116 OT SD       0.80E-01    3.1     0.00001627     -1636.7267395676 -2.30E-05
   117 OT SD       0.80E-01    3.1     0.00002131     -1636.7267604824 -2.09E-05
   118 OT SD       0.80E-01    3.5     0.00004704     -1636.7267626557 -2.17E-06
   119 OT DIIS     0.80E-01    3.2     0.00013861     -1636.7265851246  1.78E-04
   120 OT DIIS     0.80E-01    3.1     0.00001567     -1636.7268019499 -2.17E-04
   121 OT SD       0.80E-01    3.2     0.00001547     -1636.7268333134 -3.14E-05
   122 OT SD       0.80E-01    3.4     0.00001565     -1636.7268565569 -2.32E-05
   123 OT SD       0.80E-01    3.4     0.00001699     -1636.7268794466 -2.29E-05
   124 OT SD       0.80E-01    3.4     0.00002699     -1636.7268979054 -1.85E-05
   125 OT SD       0.80E-01    3.5     0.00007361     -1636.7268682685  2.96E-05
   126 OT DIIS     0.80E-01    3.2     0.00023858     -1636.7263118371  5.56E-04
   127 OT DIIS     0.80E-01    3.2     0.00001783     -1636.7262485520  6.33E-05
   128 OT DIIS     0.80E-01    3.2     0.00001773     -1636.7263561734 -1.08E-04
   129 OT DIIS     0.80E-01    3.3     0.00001728     -1636.7263837551 -2.76E-05
   130 OT DIIS     0.80E-01    3.3     0.00001633     -1636.7268210106 -4.37E-04
   131 OT DIIS     0.80E-01    3.3     0.00001576     -1636.7269794926 -1.58E-04
   132 OT SD       0.80E-01    3.4     0.00001593     -1636.7270475515 -6.81E-05
   133 OT SD       0.80E-01    3.2     0.00001781     -1636.7270708826 -2.33E-05
