     280
 i =        1, E =     -1636.5912349150
 Eu         3.4964689520        6.3639539506        7.2086456245
 Eu         0.4794554568        8.2534824870       23.0999972244
 Eu         4.4942469590       13.6707297471        8.5135704568
 Eu         7.0877863877        0.9104937180       24.2635804042
  H         0.4566795166        6.5400875222        5.0676489928
  H         3.3706088849        8.0804427805       20.8595421991
  H         7.1979932944       13.8503993640       10.7249184344
  H         4.2840434489        0.7701311508       26.5166946090
  H         7.0009633971        5.5904322403        5.7870457113
  H         4.4810070319        9.0302615253       21.5789267745
  H         0.6537632114       12.9005389478       10.0051633658
  H         3.1734248485        1.7198616626       25.7974646313
  H         6.7448265597        7.1770416098        5.7215544502
  H         4.7368811810        7.4436568235       21.5137138016
  H         0.9096121620       14.4872992238       10.0707342354
  H         2.9175910645        0.1331991662       25.8628491506
  H         3.3026201749        1.0689683719        5.8019270720
  H         0.5244441331       13.5518399356       21.5943615379
  H         4.3517288409        8.3790885028        9.9897448603
  H         7.1300382152        6.2413937056       25.7821488320
  H         2.4850982801        2.0736808905        6.7552828533
  H         1.3421059790       12.5470886880       22.5473763919
  H         5.1695450428        9.3838964576        9.0370203696
  H         6.3124559833        5.2366456924       24.8289973780
  H         3.8055011064        2.6137888643        6.0076319656
  H         0.0219872475       12.0068995383       21.7995247479
  H         3.8492870835        9.9240140994        9.7844872336
  H         7.6327226482        4.6966253058       25.5767410375
  H         6.5293606590       14.5532863736        2.1544299026
  H         4.9528973560        0.0679293363       17.9462394856
  H         1.1252493364        7.2428240798       13.6374626832
  H         2.7017996782        7.3783765158       29.4300399055
  H         1.9009674415       11.8051433323        6.5642965108
  H         1.9264482172        2.8153843707       22.3563640080
  H         5.7538014495        4.4948452561        9.2279118800
  H         5.7281866718       10.1257242649       25.0198188150
  H         1.5419666421       10.2989294377        7.0654648288
  H         2.2856263636        4.3218105951       22.8575479713
  H         6.1126337712        2.9884254148        8.7263488986
  H         5.3694470707       11.6320924664       24.5185803019
  H         0.3670058719       11.3900586619        6.9069269364
  H         3.4602389932        3.2304297918       22.6992301186
  H         7.2875202473        4.0799669610        8.8850185745
  H         4.1944286894       10.5407885272       24.6772547180
  H         1.9634789490        3.4805911090        4.9091878071
  H         1.8637551608       11.1399607796       20.7015957314
  H         5.6909703148       10.7908709996       10.8826564903
  H         5.7909094497        3.8296779992       26.6749197516
  H         5.3770941885        6.1214647184        4.1513538695
  H         6.1048138008        8.4992147009       19.9436410028
  H         2.2774828335       13.4316382254       11.6407047837
  H         1.5498426832        1.1888157704       27.4326535352
  H         5.0075182756       10.3743560844        2.4439008330
  H         6.4746595610        4.2463192007       18.2360175551
  H         2.6475042727        3.0638117274       13.3484103237
  H         1.1797666208       11.5569271970       29.1408515934
  H         4.7282093171        8.3017752387        3.7077604044
  H         6.7535517493        6.3186347039       19.5000002739
  H         2.9263604651        0.9916043483       12.0844959552
  H         0.9007117759       13.6291032528       27.8765939901
  H         2.9320514658        4.3804796697        3.0548215421
  H         0.8953960521       10.2399707922       18.8469835444
  H         4.7230391949       11.6908067249       12.7373431960
  H         6.7589044190        2.9297330950       28.5296260813
  H         7.0367446180       10.7824113507        1.1624968536
  H         4.4451941105        3.8383847795       16.9545318942
  H         0.6180120856        3.4719331148       14.6297467559
  H         3.2091088448       11.1488429936       30.4221154158
  H         0.8697657057        6.9968645450        2.3392590716
  H         2.9574679222        7.6237266841       18.1317316941
  H         6.7848134999       14.3070576755       13.4527443651
  H         4.6970751792        0.3134402418       29.2446453929
  H         5.4673678366       13.8134484371        4.2288339463
  H         6.0147506885        0.8072246231       20.0211220639
  H         2.1870500341        6.5030902432       11.5634317012
  H         1.6397474895        8.1175246137       27.3553272397
  H         3.1587639240        0.1698320813        3.5557119340
  H         0.6680218515       14.4508229968       19.3482674524
  H         4.4961341035        7.4802160853       12.2363824663
  H         6.9860743752        7.1405313008       28.0282967412
  H         2.0171653964       11.7972859805        2.8079260888
  H         1.8102559381        2.8233746111       18.5999560097
  H         5.6374504406        4.4870819092       12.9841629756
  H         5.8443970490       10.1336552879       28.7763284914
  H         4.7668089114        1.9809294795        0.0823627572
  H         6.7153714742       12.6397474716       15.8741860543
  H         2.8879096047        9.2911729714       15.7097858318
  H         0.9392849417        5.3293956064       31.5019521364
  H         6.4289796181       12.0319136917        5.5494840635
  H         5.0529451143        2.5885876799       21.3414886562
  H         1.2256163085        4.7214789725       10.2426852477
  H         2.6016225317        9.8990406321       26.0348806887
  H         0.3482140882        5.0005371497        3.1531292723
  H         3.4790821802        9.6198852530       18.9452728675
  H         7.3064080834       12.3109633091       12.6388624378
  H         4.1755569521        2.3095766315       28.4309717510
  H         6.4912266822        4.8559052649        2.3065322688
  H         4.9907399265        9.7645257164       18.0986600239
  H         1.1633182948       12.1662874322       13.4855765231
  H         2.6640318831        2.4543523350       29.2777175505
  H         6.6722930239        4.1351953136        3.8643414546
  H         4.8096004278       10.4855554857       19.6563522076
  H         0.9823150316       11.4453815181       11.9278214889
  H         2.8449211554        3.1751843439       27.7198465100
  H         4.3168791992        0.0036388279        1.4197235744
  H         7.1649661270       14.6169594853       17.2117793218
  H         3.3379534188        7.3140657719       14.3724928738
  H         0.4891528037        7.3066065494       30.1646612474
  H         0.3595909424        9.8465037587        5.1069186875
  H         3.4676943220        4.7741086658       20.8988005762
  H         7.2950688024        2.5362781627       10.6853401043
  H         4.1868686655       12.0843096922       26.4773047118
  H         1.0979096551        0.5955119774        4.7227940174
  H         2.7292152929       14.0249470146       20.5148752413
  H         6.5566280953        7.9058503005       11.0693677691
  H         4.9254009067        6.7147837246       26.8612653289
  H         0.2993272686        1.9158805903        3.9477003848
  H         3.5280060299       12.7047959571       19.7396061515
  H         7.3554501463        9.2261336312       11.8444450433
  H         4.1264477768        5.3945804812       27.6365242862
  H         0.3597336104        1.8450161232        5.6776046742
  H         3.4675439296       12.7754018588       21.4695767895
  H         7.2947578511        9.1555326385       10.1145912975
  H         4.1870235473        5.4651234086       25.9066705324
  H         3.1309021234       10.9157252335        4.6207377416
  H         0.6964141071        3.7047828199       20.4128932775
  H         4.5238143731        3.6056362573       11.1712774653
  H         6.9582149623       11.0151381657       26.9633850166
  H         2.3111767931        9.7115497220        3.6471857550
  H         1.5161768834        4.9089658886       19.4392945411
  H         5.3434584575        2.4013237209       12.1449229531
  H         6.1385275821       12.2192663318       27.9370303415
  H         2.7398903157        9.3565613282        5.2733629572
  H         1.0873085656        5.2640893207       21.0654269560
  H         4.9145973208        2.0462434734       10.5188054776
  H         6.5671051285       12.5744896830       26.3109327649
  C         6.9691142692       13.8085312548        2.7395725267
  C         4.5131064445        0.8126946896       18.5313075738
  C         0.6849768147        6.4982825129       13.0523737696
  C         3.1419288987        8.1225196975       28.8444316390
  C         0.4968407781       13.2060692770        2.3509272828
  C         3.3300012994        1.4139690972       18.1432868630
  C         7.1576931693        5.8954522164       13.4414487496
  C         4.3245476203        8.7242994244       29.2330563185
  C         2.1631197829        2.4495395203        4.7380907041
  C         1.6641396055       12.1709571633       20.5301177150
  C         5.4915012478        9.7598282092       11.0541688547
  C         5.9903058720        4.8607706136       26.8462242225
  C         6.4083677316        6.2247298811        3.9065273921
  C         5.0736149901        8.3958959754       19.6985698423
  C         1.2462646260       13.5350375872       11.8856747484
  C         2.5810529794        1.0856337923       27.6778663803
  C         0.4835313296       11.7908818015        4.2835278714
  C         3.3440956093        2.8302679041       20.0752947101
  C         7.1709197799        4.4804538533       11.5083351626
  C         4.3109188522       10.1400513747       27.3005881168
  C         5.7613711878        9.6506755212        2.4327444567
  C         5.7209105876        4.9700911252       18.2246072302
  C         1.8934150056        2.3403860480       13.3593286872
  C         1.9341016526       12.2801181664       29.1510723351
  C         5.5952380669        8.4674545466        3.1474363821
  C         5.8863305195        6.1527664772       18.9399842322
  C         2.0588243774        1.1577037446       12.6439169261
  C         1.7686608793       13.4626832749       28.4352529214
  C         3.2139971087        3.4388865932        2.7013031107
  C         0.6135723212       11.1815652989       18.4933842865
  C         4.4401876901       10.7493788457       13.0905411584
  C         7.0411544051        3.8713474486       28.8827820102
  C         6.9134883719        9.8880798253        1.6860366795
  C         4.5683504379        4.7326212573       17.4782615170
  C         0.7411477171        2.5776237756       14.1061089867
  C         3.0861293795       12.0430502878       29.8982461449
  C         2.9631052438        2.2905972646        3.4528091574
  C         0.8656671195       12.3303446581       19.2440203553
  C         4.6921951429        9.6007551575       12.3397577679
  C         6.7900927035        5.0198879118       28.1315451049
  C         0.1089439884        7.7105977714        2.3596667314
  C         3.7182621256        6.9099332103       18.1518448580
  C         7.5457191485        0.4001216244       13.4327088570
  C         3.9362484924       14.2202842025       29.2245438957
  C         6.3622534466       13.3751790605        3.9161769299
  C         5.1190617262        1.2443759138       19.7090339065
  C         1.2917773238        6.0653288054       11.8755485038
  C         2.5354167293        8.5547874635       27.6672548486
  C         3.3579690256        1.0318355952        2.9980966932
  C         0.4682305293       13.5887760514       18.7909407511
  C         4.2959131167        8.3422610957       12.7935674620
  C         7.1862085063        6.2784616223       28.5854612253
  C         6.6010077998        7.5005599173        3.1083847747
  C         4.8808987449        7.1202854151       18.9000710577
  C         1.0534753661        0.1902167348       12.6838258581
  C         2.7732869803       14.4306468394       28.4764932143
  C         0.2478075968        8.9079512954        1.6721163139
  C         3.5794604663        5.7125125829       17.4640280685
  C         7.4067165382        1.5977885618       14.1199251526
  C         4.0753428403       13.0228037710       29.9117037455
  C         3.8614274220        3.2993336506        1.4709221803
  C         7.6196794716       11.3213418881       17.2636304963
  C         3.7924448756       10.6098010453       14.3206995834
  C         0.0350923428        4.0107648976       30.1126149715
  C         1.1222160348       12.2279447424        3.1275884113
  C         2.7051889466        2.3926558201       18.9195456105
  C         6.5327431628        4.9171552701       12.6647783771
  C         4.9492093920        9.7033085456       28.4568863827
  C         4.2719034054        2.0665278814        0.9979196950
  C         7.2106475369       12.5542655074       16.7895576269
  C         3.3831290140        9.3768629449       14.7943955840
  C         0.4440135394        5.2437697604       30.5865635624
  C         6.9215912634       12.3575793948        4.6861513639
  C         4.5599901551        2.2626231509       20.4784588598
  C         0.7329858021        5.0470744983       11.1060033038
  C         3.0940973456        9.5735655145       26.8983627625
  C         6.9508601924        4.9552574044        3.2549267299
  C         4.5310192013        9.6654144433       19.0470537494
  C         0.7037822910       12.2655434162       12.5371389979
  C         3.1236169711        2.3551700086       28.3292806888
  C         4.0240069710        0.9405919213        1.7753598269
  C         7.4578960334       13.6800023322       17.5674381795
  C         3.6303903528        8.2510637031       14.0167215994
  C         0.1966180635        6.3696083372       29.8088864644
  C         1.0736620403       10.6365721790        5.0775036144
  C         2.7535417941        3.9841108121       20.8697292022
  C         6.5807929439        3.3261678632       10.7143613633
  C         4.9010304170       11.2943094210       26.5065289210
  C         0.8825043372        1.6293634351        4.7825040821
  C         2.9448686211       12.9911095548       20.5744367629
  C         6.7721547995        8.9396839221       11.0097435162
  C         4.7096807799        5.6809975266       26.8017713507
  C         2.4291047290       10.1241744901        4.6143162442
  C         1.3981122679        4.4964131687       20.4064562371
  C         5.2254261631        2.8139442869       11.1777949082
  C         6.2564423127       11.8066919612       26.9698806689
 Br         1.2833300847       13.6908558862        0.6775284040
 Br         2.5443736807        0.9301018710       16.4692025012
 Br         6.3721208522        6.3811308319       15.1150625914
 Br         5.1101134972        8.2405108293       30.9071178847
 Br         1.8517827359        9.1899114734        0.6562870968
 Br         1.9753025979        5.4307122600       16.4484935381
 Br         5.8027362597        1.8798105910       15.1357899773
 Br         5.6791942969       12.7408262994       30.9280648459
 Br         4.1903844959        4.8705820679        0.4155843102
 Br         7.2917491638        9.7495490018       16.2079493116
 Br         3.4643894641       12.1810390645       15.3765182967
 Br         0.3628814223        2.4394131081       31.1686395865
  N         7.1327259130        6.4028018571        5.2245947417
  N         4.3491004335        8.2178195978       21.0165981364
  N         0.5218392283       13.7129362487       10.5675498309
  N         3.3054876662        0.9074424668       26.3597924671
  N         3.0104367269        2.0177191525        5.9093899937
  N         0.8169370273       12.6031376995       21.7014129101
  N         4.6442522310        9.3278215956        9.8829142892
  N         6.8376642598        5.2926630085       25.6749674068
  N         1.2267112615       11.0698948289        6.5150393776
  N         2.6006294969        3.5507098329       22.3071596127
  N         6.4278899815        3.7594332150        9.2767905592
  N         5.0541164089       10.8611231856       25.0690141935
 Cl         2.6042801421        6.5093336022        4.5736660176
 Cl         1.2284037204        8.1133249992       20.3639008482
 Cl         5.0550475257       13.8176620123       11.2191484230
 Cl         6.4280642603        0.8017562648       27.0123732189
 Cl         5.0254751022        4.3988235515        6.4858163971
 Cl         6.4562905139       10.2207410360       22.2780014009
 Cl         2.6316790577       11.7108171724        9.3073235710
 Cl         1.1963054938        2.9084909115       25.1015594710
 Cl         1.3222544972        4.4679427940        7.4257508391
 Cl         2.5087878511       10.1562427096       23.2165095440
 Cl         6.3368180740       11.7708965070        8.3674941435
 Cl         5.1444763016        2.8456076020       24.1576638248
 Cl         4.1732219109        6.0865330007        9.7339828887
 Cl         7.3030402708        8.5331405912       25.5275054585
 Cl         3.4789014741       13.3991288133        6.0613980729
 Cl         0.3499171555        1.2228623152       21.8492057446
 Cl         5.0982624836        8.2674654790        6.7933195218
 Cl         6.3810232495        6.3514985763       22.5870531834
 Cl         2.5565511877        0.9597113058        8.9969449127
 Cl         1.2744245937       13.6634639636       24.7911769621
 Cl         1.4721114315        8.1807086070        7.8940235522
 Cl         2.3608321660        6.4370524209       23.6891271289
 Cl         6.1908987383        0.8783807774        7.8918927133
 Cl         5.2920503198       13.7443487061       23.6821867229
     280
 i =        2, E =     -1636.7136740562
 Eu         3.2831110759        6.5432185023        7.1614741314
 Eu         0.4808627322        8.3872616059       23.1528595059
 Eu         4.4863312510       13.4754937140        8.5016349899
 Eu         7.0101687667        1.0608383281       24.5135804042
  H         0.4886358708        6.5396865089        5.0734166384
  H         3.3396817678        8.0811448630       20.8619093134
  H         7.1710341899       13.8502518249       10.7261312684
  H         4.3138996391        0.7709305913       26.5159936341
  H         7.0075470586        5.5762318513        5.8077023824
  H         4.4802210768        9.0440131006       21.5981982348
  H         0.6600041794       12.8865937317        9.9866846306
  H         3.1704057383        1.7340046861       25.7784783870
  H         6.7415630276        7.1893534251        5.7415873358
  H         4.7452556513        7.4320300267       21.5342212225
  H         0.9238751131       14.4990967980       10.0484001338
  H         2.9067997447        0.1222520612       25.8421739434
  H         3.3090404356        1.0445590640        5.8120072295
  H         0.5180378575       13.5740320414       21.6019257882
  H         4.3432059045        8.3562060662        9.9816046797
  H         7.1370446335        6.2627082891       25.7744540026
  H         2.4812313476        2.0774756970        6.7807953757
  H         1.3460987496       12.5427434794       22.5702686167
  H         5.1737357200        9.3883610841        9.0182665761
  H         6.3087686721        5.2320296374       24.8067812876
  H         3.8242668837        2.6268776937        6.0188366956
  H         0.0011797324       11.9904135387       21.8114838193
  H         3.8251642692        9.9414977366        9.7709105571
  H         7.6550012023        4.6783912668       25.5634263113
  H         6.5201113906       14.5710178522        2.1403561868
  H         4.9622611372        0.0501031513       17.9317544861
  H         1.1342498137        7.2607116411       13.6516492341
  H         2.6924768087        7.3603154870       29.4442578503
  H         1.9171615734       11.8236070434        6.5743874109
  H         1.9112222877        2.7984675500       22.3660549326
  H         5.7388668943        4.5119246638        9.2235526333
  H         5.7428627077       10.1089848402       25.0117037563
  H         1.5448992735       10.2771339401        7.0835070726
  H         2.2816159276        4.3400328637       22.8745146083
  H         6.1092704059        2.9719464188        8.7121273532
  H         5.3734077393       11.6487266987       24.5023563167
  H         0.3566462543       11.3963944562        6.9302288029
  H         3.4731119473        3.2237352394       22.7245446783
  H         7.3037881776        4.0867373872        8.8577826396
  H         4.1800279991       10.5340443783       24.6506404472
  H         1.9629805899        3.5005017216        4.9178682532
  H         1.8631221447       11.1199827903       20.7090481393
  H         5.6898496377       10.8100898704       10.8767704229
  H         5.7918820589        3.8097792238       26.6676784655
  H         5.3634387235        6.1211216687        4.1594866380
  H         6.1186508956        8.4995244610       19.9539816618
  H         2.2901774609       13.4309248474       11.6279441555
  H         1.5361947599        1.1897189610       27.4209115921
  H         4.9854346956       10.4004107945        2.4427348936
  H         6.4964148358        4.2206532625       18.2346161434
  H         2.6690522933        3.0894388357       13.3496772594
  H         1.1580250160       11.5312061450       29.1421448838
  H         4.7090049318        8.2934533364        3.7169000816
  H         6.7723995286        6.3273881272       19.5101148487
  H         2.9442741677        0.9834378328       12.0732094498
  H         0.8824574575       13.6378128623       27.8661041665
  H         2.9258857774        4.4032846282        3.0640273052
  H         0.9014581821       10.2169397501       18.8565208481
  H         4.7289136244       11.7136248386       12.7281459715
  H         6.7529131867        2.9067410843       28.5199076590
  H         7.0397503182       10.8002242240        1.1453057822
  H         4.4421483984        3.8203587436       16.9370636801
  H         0.6148370571        3.4901253254       14.6471552934
  H         3.2121884730       11.1307702451       30.4396769315
  H         0.8903264529        6.9812765670        2.3378274457
  H         2.9367910118        7.6391370371       18.1307080835
  H         6.7645532522       14.2915543015       13.4542033754
  H         4.7176018704        0.3288910642       29.2455600490
  H         5.4377907818       13.8243223483        4.2390719694
  H         6.0431636376        0.7957952106       20.0309480416
  H         2.2152379178        6.5144796156       11.5527271100
  H         1.6112816555        8.1059630723       27.3456186786
  H         3.1527509698        0.1545512540        3.5634062820
  H         0.6741485230       14.4657941842       19.3554293606
  H         4.5022772667        7.4651705730       12.2290016207
  H         6.9799467543        7.1555022791       28.0212050429
  H         2.0362352338       11.7876800816        2.7964481978
  H         1.7912531978        2.8331981336       18.5882413474
  H         5.6179680076        4.4772004844       12.9960794303
  H         5.8635581966       10.1435887080       28.7881533855
  H         4.7799238962        1.9796162781        0.0585121873
  H         6.7025566226       12.6411994462       15.8505587994
  H         2.8749652405        9.2897717772       15.7335622683
  H         0.9522760525        5.3308074695       31.5256754157
  H         6.4175770239       12.0266333149        5.5616828625
  H         5.0640372744        2.5942043399       21.3548595062
  H         1.2372366209        4.7170066391       10.2276990775
  H         2.5904488765        9.9044940013       26.0208863073
  H         0.3612105726        4.9962424356        3.1501674256
  H         3.4657013561        9.6239761684       18.9420395977
  H         7.2929638912       12.3067641177       12.6428503628
  H         4.1890458496        2.3136955636       28.4344720231
  H         6.4857130367        4.8451494993        2.2812452258
  H         4.9961101671        9.7752419973       18.0735483739
  H         1.1683505329       12.1557194626       13.5107259296
  H         2.6588248997        2.4649575176       29.3028299909
  H         6.6734090677        4.1110717690        3.8719863380
  H         4.8090945786       10.5091015023       19.6641193240
  H         0.9824530769       11.4220966821       11.9194813122
  H         2.8450085267        3.1983244575       27.7116334491
  H         4.3238427121       -0.0264945303        1.4064723669
  H         7.1579954232       14.6470494418       17.1984391379
  H         3.3310524552        7.2842815725       14.3855300724
  H         0.4960444001        7.3367679976       30.1779042746
  H         0.3439216123        9.8264717865        5.1080540901
  H         3.4842540563        4.7942881791       20.8997802962
  H         7.3121745911        2.5172504477       10.6839323023
  H         4.1700043081       12.1041014754       26.4765030008
  H         1.0914072171        0.5789991960        4.7208868660
  H         2.7359954645       14.0416221900       20.5126945341
  H         6.5633570299        7.8896323047       11.0712429177
  H         4.9185874841        6.7312368616       26.8633169370
  H         0.2758582897        1.9129141811        3.9285719924
  H         3.5515751920       12.7077545187       19.7207687342
  H         7.3793679625        9.2232983203       11.8631847941
  H         4.1026866797        5.3975069667       27.6552852507
  H         0.3437087047        1.8417962167        5.6929351861
  H         3.4848451495       12.7790071588       21.4848660472
  H         7.3136803179        9.1505497038       10.0993459894
  H         4.1692441570        5.4692338848       25.8915822143
  H         3.1486860503       10.9225777889        4.6159503207
  H         0.6783003954        3.6986273812       20.4079905525
  H         4.5054065219        3.6111400789       11.1756779613
  H         6.9765336112       11.0092144695       26.9681546801
  H         2.3227997766        9.6999258986        3.6256517093
  H         1.5044317212        4.9207845827       19.4179966208
  H         5.3321562810        2.3897277463       12.1663286191
  H         6.1501619735       12.2312109090       27.9582533038
  H         2.7512990296        9.3412997508        5.2787907713
  H         1.0739948315        5.2797353326       21.0699706777
  H         4.8990522014        2.0314425038       10.5142917398
  H         6.5813722564       12.5899792926       26.3067305743
  C         6.9650154460       13.8054154847        2.7365103355
  C         4.5164665809        0.8145227514       18.5288482705
  C         0.6891851777        6.4951226832       13.0554257498
  C         3.1380725478        8.1249409643       28.8473172111
  C         0.5067791965       13.2172777936        2.3507552086
  C         3.3205728090        1.4033237677       18.1426652042
  C         7.1477794808        5.9066387821       13.4413591349
  C         4.3339333461        8.7137600290       29.2333802995
  C         2.1671060526        2.4520805741        4.7416862808
  C         1.6606254863       12.1687140311       20.5331931334
  C         5.4874753331        9.7611131935       11.0506005588
  C         5.9943351956        4.8586256139       26.8425175374
  C         6.4143836912        6.2274490072        3.9093836809
  C         5.0682788825        8.3933909004       19.7017384684
  C         1.2405687182       13.5373376533       11.8825309232
  C         2.5861793648        1.0833795334       27.6745299152
  C         0.4857216571       11.7848385709        4.2831694798
  C         3.3416623899        2.8350548510       20.0754242845
  C         7.1696980142        4.4754560734       11.5092155899
  C         4.3123403759       10.1455014171       27.3012919512
  C         5.7556154277        9.6592625649        2.4317062475
  C         5.7260116231        4.9615783238       18.2241475530
  C         1.8986541970        2.3485155934       13.3602742587
  C         1.9288185849       12.2717471017       29.1518457045
  C         5.5975882039        8.4738990550        3.1487480475
  C         5.8846054157        6.1471115332       18.9406040059
  C         2.0572049449        1.1629253881       12.6439138613
  C         1.7702589590       13.4575099023       28.4355486548
  C         3.2172018497        3.4418433009        2.6979744090
  C         0.6106782918       11.1783861168       18.4899049191
  C         4.4373456987       10.7523646641       13.0940929594
  C         7.0444547569        3.8681089280       28.8859909565
  C         6.9161264704        9.8912770368        1.6905714699
  C         4.5657783877        4.7292832081       17.4823713729
  C         0.7383680561        2.5812447868       14.1017544893
  C         3.0889304483       12.0393190135       29.8936492285
  C         2.9453438496        2.2941456660        3.4494205018
  C         0.8808403830       12.3260745525       19.2419621118
  C         4.7079403398        9.6049290899       12.3419693668
  C         6.7732931286        5.0157586950       28.1342945786
  C         0.1106570021        7.7101676098        2.3633357130
  C         3.7169190618        6.9106635503       18.1551177422
  C         7.5441124607        0.3999260688       13.4288190510
  C         3.9376316684       14.2208653445       29.2213025018
  C         6.3567305065       13.3818298249        3.9199268244
  C         5.1243966414        1.2386501260       19.7122687627
  C         1.2969689108        6.0710186968       11.8718695992
  C         2.5298254960        8.5494314779       27.6641952923
  C         3.3659458273        1.0382920742        2.9978667169
  C         0.4615944942       13.5820109298       18.7898858267
  C         4.2889736596        8.3490458381       12.7941601891
  C         7.1934513953        6.2715286427       28.5861492594
  C         6.5915961228        7.4923110927        3.0971815277
  C         4.8899115455        7.1283151588       18.8899263344
  C         1.0624326611        0.1819059333       12.6940138940
  C         2.7649756199       14.4385204279       28.4857000671
  C         0.2493634668        8.9079606533        1.6699529158
  C         3.5780175871        5.7124666795       17.4622112656
  C         7.4055756219        1.5977300981       14.1222826322
  C         4.0764705783       13.0227910284       29.9140461535
  C         3.8628647666        3.3056303168        1.4674873150
  C         7.6192736124       11.3148784937       17.2596778335
  C         3.7918187748       10.6161957072       14.3245250611
  C         0.0353725500        4.0046756078       30.1164682103
  C         1.1200085168       12.2272606247        3.1214546683
  C         2.7071011342        2.3929914202       18.9136150352
  C         6.5341376726        4.9168231162       12.6708611917
  C         4.9478227971        9.7032698761       28.4625073774
  C         4.2774456701        2.0656642291        0.9969027912
  C         7.2046441801       12.5549252140       16.7891532224
  C         3.3770821869        9.3762343431       14.7950064772
  C         0.4501384426        5.2446052563       30.5870992359
  C         6.9241237240       12.3596889517        4.6791483640
  C         4.5578824452        2.2608351678       20.4721321886
  C         0.7316014534        5.0484579365       11.1116380953
  C         3.0962262905        9.5713772604       26.9039843541
  C         6.9416590529        4.9553072030        3.2538949245
  C         4.5398214542        9.6651159812       19.0460427554
  C         0.7123855086       12.2655567191       12.5380629858
  C         3.1149583954        2.3549087353       28.3302747276
  C         4.0266237442        0.9323111331        1.7724929069
  C         7.4550098771       13.6882917831       17.5646949284
  C         3.6280193959        8.2430509582       14.0194437651
  C         0.1993787047        6.3779326866       29.8116353045
  C         1.0671294330       10.6332069373        5.0835083445
  C         2.7607597321        3.9878350345       20.8744880955
  C         6.5881362029        3.3231662521       10.7101352610
  C         4.8937249952       11.2978649161       26.5021597535
  C         0.8811542024        1.6366376783        4.7781576516
  C         2.9465775876       12.9840498672       20.5705545234
  C         6.7741936679        8.9471465704       11.0134396186
  C         4.7081140403        5.6736452600       26.8057368395
  C         2.4215932967       10.1242091455        4.6128264953
  C         1.4057635074        4.4966181672       20.4052593629
  C         5.2332908953        2.8135637376       11.1789082674
  C         6.2487516944       11.8068955997       26.9710390819
 Br         1.2914341844       13.6939100067        0.6651861157
 Br         2.5363598824        0.9268941337       16.4570397414
 Br         6.3639996998        6.3841438615       15.1272542644
 Br         5.1180666139        8.2373985074       30.9191508234
 Br         1.8622890388        9.1960135330        0.6527662159
 Br         1.9649315826        5.4245632365       16.4450595104
 Br         5.7922824520        1.8858358631       15.1392858304
 Br         5.6897304129       12.7345239644       30.9314655871
 Br         4.1930645245        4.8843526683        0.4095946724
 Br         7.2890651045        9.7357681955       16.2020647405
 Br         3.4623536001       12.1954446118       15.3822687668
 Br         0.3655230234        2.4260024295       31.1746058253
  N         7.1387835080        6.4022178068        5.2271513494
  N         4.3441576049        8.2175660580       21.0193828562
  N         0.5198113384       13.7141102281       10.5634724262
  N         3.3096966858        0.9073558861       26.3567463581
  N         3.0132441987        2.0163270353        5.9129574950
  N         0.8122873665       12.6022373516       21.7039922900
  N         4.6364523436        9.3288293165        9.8814633912
  N         6.8437065781        5.2907857789       25.6722116275
  N         1.2311365201       11.0695411343        6.5183019913
  N         2.5989725232        3.5502940075       22.3094752490
  N         6.4288658228        3.7614476744        9.2748111212
  N         5.0542860167       10.8600557852       25.0669573843
 Cl         2.6134847381        6.5057163967        4.5833035244
 Cl         1.2248798631        8.1179582996       20.3841898186
 Cl         5.0591799676       13.8141663781       11.2066704004
 Cl         6.4274438017        0.8032159101       26.9971213387
 Cl         5.0558430604        4.3728234569        6.4710878599
 Cl         6.4499065472       10.2256180326       22.2766174117
 Cl         2.6387213621       11.7161879613        9.3083745664
 Cl         1.1924183737        2.9048929565       25.1024519776
 Cl         1.3389122421        4.4851222913        7.4289620561
 Cl         2.5021734880       10.1487125908       23.2247483857
 Cl         6.3516834345       11.7578467045        8.3584375998
 Cl         5.1476835413        2.8394183548       24.1481812232
 Cl         4.1884494007        6.0851246517        9.7570414473
 Cl         7.2802680665        8.5386505981       25.5814373301
 Cl         3.4691102347       13.3979974827        6.0405984232
 Cl         0.3642135083        1.2257377702       21.8110394683
 Cl         5.1483918102        8.3191066351        6.7754908445
 Cl         6.3676884211        6.3399098312       22.5837248438
 Cl         2.5674851589        0.9467909901        8.9962989864
 Cl         1.2742482004       13.6632342200       24.7904888170
 Cl         1.4952744322        8.1699212838        7.8870964139
 Cl         2.3487325538        6.4472296825       23.6911988682
 Cl         6.2104452595        0.8966038192        7.8770907930
 Cl         5.2824139051       13.7338268170       23.6704781168
     280
 i =        3, E =     -1636.7194914506
 Eu         3.5331110759        6.7599253285        7.1474471497
 Eu         0.4003104260        8.5115388772       23.1879814427
 Eu         4.4805319506       13.5835402366        8.6902984684
 Eu         6.8823507751        0.9088353656       24.5830596816
  H         0.5235263644        6.5371224226        5.0811563388
  H         3.3006664333        8.0820304289       20.8707016715
  H         7.1397850541       13.8518001089       10.7199729950
  H         4.3410573424        0.7702568485       26.5092837407
  H         7.0112739967        5.5607696625        5.8303116884
  H         4.4739624897        9.0539018650       21.6159551393
  H         0.6629821872       12.8781124587        9.9698386039
  H         3.1696291133        1.7454373745       25.7572614405
  H         6.7408280344        7.1977297702        5.7656664308
  H         4.7511136598        7.4214349500       21.5592677657
  H         0.9404951100       14.5109599062       10.0192724438
  H         2.8942061295        0.1105771999       25.8112869129
  H         3.3169316194        1.0228765702        5.8314623842
  H         0.5086740097       13.6028208131       21.6210976156
  H         4.3343340721        8.3282538036        9.9689030029
  H         7.1471208685        6.2827460759       25.7595525015
  H         2.4839924366        2.0800373022        6.8122470116
  H         1.3441462748       12.5428344676       22.5961858186
  H         5.1726093982        9.3902569073        8.9975078362
  H         6.3114792044        5.2318584580       24.7770464935
  H         3.8486274477        2.6428765934        6.0381278372
  H        -0.0218264348       11.9804931010       21.8257227622
  H         3.7999198003        9.9557571259        9.7576501392
  H         7.6810351301        4.6645822756       25.5455104251
  H         6.5101568046       14.5914082193        2.1232195528
  H         4.9719465493        0.0297730230       17.9143829666
  H         1.1437092736        7.2808952767       13.6696300667
  H         2.6826862963        7.3396464056       29.4618214772
  H         1.9341824245       11.8408831324        6.5854267894
  H         1.8928620662        2.7798047434       22.3723992441
  H         5.7229646970        4.5279543129        9.2133006338
  H         5.7543593993       10.0950778922       25.0030105485
  H         1.5492441624       10.2576939778        7.1047343816
  H         2.2771102339        4.3637557124       22.8929186184
  H         6.1048647179        2.9530470606        8.6926933670
  H         5.3750199487       11.6734957656       24.4809066811
  H         0.3501032372       11.4033153077        6.9592207731
  H         3.4796591550        3.2175026258       22.7500551690
  H         7.3151792006        4.0926871284        8.8241847685
  H         4.1689570154       10.5289284164       24.6168686509
  H         1.9623679701        3.5154796867        4.9267245202
  H         1.8633189152       11.1023782643       20.7118063643
  H         5.6889894350       10.8267856119       10.8755060652
  H         5.7906695595        3.7949146597       26.6637410712
  H         5.3510876085        6.1170497017        4.1726523211
  H         6.1344930268        8.4997198302       19.9652688960
  H         2.3062678637       13.4306590066       11.6150727659
  H         1.5243748768        1.1915829335       27.4077942082
  H         4.9639764605       10.4290041803        2.4410317789
  H         6.5176309817        4.1924838298       18.2331337328
  H         2.6902082148        3.1173366682       13.3509707750
  H         1.1365952520       11.5028771425       29.1434568135
  H         4.6921698370        8.2850634154        3.7235964951
  H         6.7901637597        6.3365697682       19.5188618946
  H         2.9607538062        0.9756678626       12.0619758642
  H         0.8665930356       13.6447841956       27.8556200105
  H         2.9223777065        4.4248581373        3.0706731075
  H         0.9052684277       10.1929153624       18.8639675550
  H         4.7327158059       11.7378191964       12.7216043719
  H         6.7490482291        2.8846749779       28.5144304918
  H         7.0435419789       10.8181937987        1.1251741827
  H         4.4383299551        3.8027426713       16.9170435146
  H         0.6109405362        3.5075169872       14.6670548753
  H         3.2161276782       11.1132974700       30.4595600348
  H         0.9091644391        6.9688687618        2.3357490841
  H         2.9165708245        7.6511487573       18.1299206791
  H         6.7448615775       14.2795989540       13.4561966995
  H         4.7362762156        0.3413567797       29.2486706317
  H         5.4087065233       13.8358385259        4.2485530992
  H         6.0724269819        0.7851667042       20.0414758603
  H         2.2440721877        6.5251602412       11.5428364084
  H         1.5833403948        8.0938873140       27.3374474760
  H         3.1467959454        0.1437345777        3.5705216218
  H         0.6798629732       14.4778274663       19.3631110835
  H         4.5082606825        7.4522206520       12.2215144725
  H         6.9734420380        7.1672233811       28.0147969115
  H         2.0534590652       11.7796111095        2.7831099926
  H         1.7741707357        2.8414805892       18.5755215471
  H         5.6017523287        4.4689181738       13.0088134586
  H         5.8797913405       10.1517355268       28.8011646699
  H         4.7953381360        1.9794998871        0.0315834488
  H         6.6875449528       12.6414404814       15.8241424896
  H         2.8602152160        9.2896501456       15.7595695736
  H         0.9672386613        5.3306242004       31.5520366738
  H         6.4061034638       12.0201846767        5.5701674238
  H         5.0768235118        2.5992330272       21.3629722371
  H         1.2486163114        4.7119126184       10.2163682964
  H         2.5806155851        9.9110631736       26.0101890134
  H         0.3700467885        4.9875769061        3.1443444973
  H         3.4566740959        9.6322897041       18.9373249196
  H         7.2841036211       12.2979704553       12.6487446102
  H         4.1969658945        2.3226770857       28.4406831866
  H         6.4829828407        4.8291064622        2.2548333640
  H         4.9992646101        9.7922221538       18.0480953253
  H         1.1707988322       12.1386561617       13.5359658599
  H         2.6566566529        2.4818667647       29.3295491151
  H         6.6760770818        4.0811171115        3.8772762750
  H         4.8054484301       10.5402932462       19.6666263350
  H         0.9793683266       11.3911258455       11.9168707167
  H         2.8481330708        3.2292816146       27.7073977398
  H         4.3303789296       -0.0554145877        1.3931556053
  H         7.1516424216       14.6755569108       17.1853413773
  H         3.3246403471        7.2557324703       14.3986636826
  H         0.5024664407        7.3656101905       30.1909666359
  H         0.3303123675        9.8076665805        5.1076401128
  H         3.4972219099        4.8122469045       20.8994693073
  H         7.3274767788        2.4987851058       10.6849088218
  H         4.1557051625       12.1224733169       26.4761062616
  H         1.0812874673        0.5666101182        4.7186654924
  H         2.7464255598       14.0546031938       20.5110932023
  H         6.5741052196        7.8756676247       11.0735487567
  H         4.9076871475        6.7432078179       26.8656400568
  H         0.2436332086        1.9066850659        3.9100369065
  H         3.5826452585       12.7136618094       19.7032980343
  H         7.4092691740        9.2174970968       11.8793983176
  H         4.0720693982        5.4037714778       27.6731706702
  H         0.3191206760        1.8342167145        5.7068509184
  H         3.5102772561       12.7879998839       21.4980848459
  H         7.3399516472        9.1420918408       10.0865863442
  H         4.1428206592        5.4789093974       25.8767634724
  H         3.1645905117       10.9232763046        4.6092898835
  H         0.6638597997        3.6972501660       20.4010363934
  H         4.4900102090        3.6101875628       11.1829479418
  H         6.9919273308       11.0111485644       26.9760956664
  H         2.3407461207        9.6871475001        3.6022136352
  H         1.4871616897        4.9331435405       19.3958017763
  H         5.3145080744        2.3784836273       12.1894481071
  H         6.1679338471       12.2418480595       27.9827413005
  H         2.7710520677        9.3245451540        5.2806379931
  H         1.0541398698        5.3006468507       21.0729265071
  H         4.8765654559        2.0132965170       10.5100189056
  H         6.6033387620       12.6063159239       26.3009162070
  C         6.9617976731       13.8107347085        2.7348606609
  C         4.5190995045        0.8085148242       18.5277708019
  C         0.6923487787        6.5007786771       13.0569298983
  C         3.1346626585        8.1196282234       28.8495429076
  C         0.5128146631       13.2270114446        2.3526135130
  C         3.3143834410        1.3936438127       18.1446136866
  C         7.1412126447        5.9175343464       13.4396452914
  C         4.3401683654        8.7035194342       29.2317132247
  C         2.1736633485        2.4494176542        4.7488617117
  C         1.6539235407       12.1693452845       20.5373949441
  C         5.4797864277        9.7598983289       11.0486888975
  C         6.0015491858        4.8611762617       26.8382078605
  C         6.4216274118        6.2290843186        3.9149817857
  C         5.0635776425        8.3905837380       19.7074292461
  C         1.2371487994       13.5407719944       11.8771154901
  C         2.5935054321        1.0802929119       27.6695670398
  C         0.4838308819       11.7764599862        4.2805321049
  C         3.3432555088        2.8437876959       20.0732516717
  C         7.1727381890        4.4650362745       11.5123722511
  C         4.3099068133       10.1554265161       27.3039727233
  C         5.7515390043        9.6723943726        2.4349539968
  C         5.7301305074        4.9491480838       18.2273583038
  C         1.9029126772        2.3605042327       13.3574384604
  C         1.9242125550       12.2593647351       29.1494650344
  C         5.5965058725        8.4766619014        3.1392669524
  C         5.8870209066        6.1443689719       18.9324254330
  C         2.0601498552        1.1652920629       12.6526710362
  C         1.7675236819       13.4551409811       28.4456788768
  C         3.2140729810        3.4427233699        2.6892469703
  C         0.6133880347       11.1752578343       18.4816383150
  C         4.4401503005       10.7557393447       13.1028149063
  C         7.0425640470        3.8664858912       28.8950339031
  C         6.9162398529        9.8964204549        1.6919558589
  C         4.5655359359        4.7244734708       17.4841138209
  C         0.7380170805        2.5858020577       14.0999440466
  C         3.0893268416       12.0344745944       29.8916159756
  C         2.9398750200        2.3004464912        3.4554297693
  C         0.8849089372       12.3192420931       19.2461388527
  C         4.7118029328        9.6113255210       12.3396706326
  C         6.7689439493        5.0092281873       28.1301146760
  C         0.1072416863        7.7084427189        2.3615536735
  C         3.7202180854        6.9131926339       18.1535490925
  C         7.5474394342        0.3978320996       13.4304157603
  C         3.9347511159       14.2220614621       29.2220010185
  C         6.3476181573       13.3862610518        3.9183870601
  C         5.1334388353        1.2339510524       19.7109051620
  C         1.3053554537        6.0754021907       11.8728236779
  C         2.5215014112        8.5456162458       27.6659546644
  C         3.3633248582        1.0461647550        2.9902074146
  C         0.4651135564       13.5752358726       18.7823653972
  C         4.2919347772        8.3549874371       12.8013175550
  C         7.1904047202        6.2643530311       28.5939673225
  C         6.5889672870        7.4893485220        3.1009790968
  C         4.8937892587        7.1309720029       18.8925501172
  C         1.0666269524        0.1792130520       12.6921791190
  C         2.7610816288       14.4411262588       28.4838505873
  C         0.2492931948        8.9119423909        1.6728070918
  C         3.5784109844        5.7094497632       17.4650426509
  C         7.4053611587        1.6011075590       14.1195809426
  C         4.0765914872       13.0191587310       29.9117620549
  C         3.8683002535        3.3094341612        1.4654343934
  C         7.6149947600       11.3104867800       17.2572404686
  C         3.7870524777       10.6213623758       14.3271836011
  C         0.0404054585        3.9997475377       30.1197612560
  C         1.1169274946       12.2270289337        3.1151829225
  C         2.7105129288        2.3935279913       18.9074587404
  C         6.5378702768        4.9174536899       12.6766007998
  C         4.9440439264        9.7029797024       28.4682867332
  C         4.2845078627        2.0636686492        0.9915715704
  C         7.1972108785       12.5564286585       16.7848317425
  C         3.3701332774        9.3748794565       14.7989923959
  C         0.4572398298        5.2461562613       30.5915855780
  C         6.9263479569       12.3647925524        4.6708845941
  C         4.5551311477        2.2552420723       20.4640464454
  C         0.7293128364        5.0536438872       11.1182393999
  C         3.0984243575        9.5667023278       26.9114344063
  C         6.9283141552        4.9542150368        3.2544802168
  C         4.5532003708        9.6648209685       19.0471932577
  C         0.7257579713       12.2662616533       12.5363500262
  C         3.1007237863        2.3556453232       28.3293958446
  C         4.0322059359        0.9255877376        1.7696196704
  C         7.4499826458       13.6948314250       17.5620776861
  C         3.6230166968        8.2363681940       14.0219904451
  C         0.2048932853        6.3845872649       29.8143281404
  C         1.0607482896       10.6336786635        5.0898106177
  C         2.7655701656        3.9873656583       20.8811304797
  C         6.5950073153        3.3227793822       10.7024589626
  C         4.8873494349       11.2978293302       26.4942229295
  C         0.8764885684        1.6484869763        4.7731694044
  C         2.9496602844       12.9724191579       20.5662091033
  C         6.7761928826        8.9580133946       11.0167675377
  C         4.7039839096        5.6612186320       26.8090235663
  C         2.4098763223       10.1199640581        4.6117627246
  C         1.4160931231        4.5029023278       20.4062983589
  C         5.2451257052        2.8071871364       11.1779885043
  C         6.2365074023       11.8136733984       26.9710172969
 Br         1.2990045466       13.6969636679        0.6571098152
 Br         2.5286538799        0.9234171371       16.4487894289
 Br         6.3557273074        6.3876541000       15.1361004354
 Br         5.1259464865        8.2338434912       30.9276185482
 Br         1.8718827480        9.2042890226        0.6532621615
 Br         1.9558083786        5.4164193284       16.4453189141
 Br         5.7826233697        1.8938168685       15.1390677650
 Br         5.6996589843       12.7263197554       30.9308383782
 Br         4.1961681372        4.8978069779        0.4054016943
 Br         7.2858694590        9.7223705841       16.1981764473
 Br         3.4598211507       12.2099234520       15.3853885917
 Br         0.3687922255        2.4118791110       31.1783521105
  N         7.1471411472        6.3996293517        5.2305027774
  N         4.3347579999        8.2148265534       21.0209618875
  N         0.5167172931       13.7195281458       10.5599965926
  N         3.3109312606        0.9046876617       26.3510798508
  N         3.0198053041        2.0178278241        5.9205997405
  N         0.8057715721       12.6062657966       21.7080478293
  N         4.6272887116        9.3263437345        9.8794986713
  N         6.8503749898        5.2890545746       25.6660081814
  N         1.2362521345       11.0680864203        6.5223468054
  N         2.5921343032        3.5520554643       22.3144593187
  N         6.4269657453        3.7611330165        9.2696687819
  N         5.0551741402       10.8645093789       25.0604618775
 Cl         2.6205415427        6.5089716370        4.5853333723
 Cl         1.2139041366        8.1320267808       20.4397352246
 Cl         5.0648425569       13.7971583442       11.1692555008
 Cl         6.4119806881        0.8041669985       27.0464312032
 Cl         5.0671755893        4.3790698195        6.4539629072
 Cl         6.4265722394       10.2448608734       22.2750822884
 Cl         2.6384026337       11.7021689353        9.3084219260
 Cl         1.1964320880        2.9161766292       25.1178542197
 Cl         1.3763401533        4.5368828932        7.4317498435
 Cl         2.5019509663       10.1453831275       23.2472177578
 Cl         6.4226957563       11.6880840824        8.3383926149
 Cl         5.1285568115        2.8576998110       24.1459150417
 Cl         4.1981170619        6.1057379917        9.7519844728
 Cl         7.2373517548        8.5485922968       25.6849267961
 Cl         3.4490523188       13.3828876530        6.0052034284
 Cl         0.3703836524        1.2259851127       21.8185708024
 Cl         5.2180485936        8.3964016504        6.7511302020
 Cl         6.3648459403        6.3504797567       22.5918880305
 Cl         2.5955546846        0.8998575539        8.9922260664
 Cl         1.2606831099       13.6822999190       24.8030775092
 Cl         1.4761686029        8.2062146329        7.8964279060
 Cl         2.3114155214        6.4800726989       23.7014046254
 Cl         6.2051484591        0.8769926989        7.8623190911
 Cl         5.2868847791       13.7327615469       23.6720919844
     280
 i =        4, E =     -1636.7265493443
 Eu         3.6326437944        6.7178166795        7.1700983811
 Eu         0.2255717665        8.3931537582       23.2520360939
 Eu         4.5692804858       13.5425557196        8.6365383931
 Eu         7.0930785388        0.9299405679       24.3330596816
  H         0.5436956014        6.5334133615        5.0888173389
  H         3.2795313525        8.0815726592       20.8793800476
  H         7.1309022156       13.8542887081       10.7110652182
  H         4.3468926371        0.7692014721       26.5051541178
  H         7.0169478187        5.5514222434        5.8393007810
  H         4.4638910987        9.0557327855       21.6209489832
  H         0.6602810249       12.8738637910        9.9610000136
  H         3.1673377505        1.7518166085       25.7477223809
  H         6.7536645276        7.1977242020        5.7728319599
  H         4.7498513377        7.4173518248       21.5712936758
  H         0.9461063289       14.5146599213       10.0059251296
  H         2.8876643208        0.1079454010       25.7968041677
  H         3.3212814373        1.0135688026        5.8451386572
  H         0.5055840314       13.6192053766       21.6347122814
  H         4.3304506040        8.3169308584        9.9657796462
  H         7.1539524905        6.2876951444       25.7501046179
  H         2.4863856806        2.0866064336        6.8238566020
  H         1.3404348686       12.5450923493       22.6079991816
  H         5.1724324934        9.3975189033        8.9931458798
  H         6.3165989998        5.2333333249       24.7619079070
  H         3.8579658584        2.6505138719        6.0480250656
  H        -0.0308831472       11.9837182454       21.8298467863
  H         3.7883589767        9.9598093047        9.7535049140
  H         7.6928744683        4.6591089412       25.5360242784
  H         6.5058153227       14.6024837947        2.1135758621
  H         4.9759364314        0.0183840940       17.9045820946
  H         1.1477568829        7.2915079597       13.6798010513
  H         2.6785380601        7.3289529319       29.4712116808
  H         1.9438651381       11.8458106384        6.5849088282
  H         1.8826997301        2.7762339192       22.3739403588
  H         5.7184947119        4.5291441923        9.2069302991
  H         5.7556920440       10.0935614229       25.0046256857
  H         1.5506408404       10.2510065605        7.1122368683
  H         2.2733499399        4.3762888870       22.9006561732
  H         6.1028994300        2.9447494799        8.6818065561
  H         5.3748837187       11.6855948998       24.4721758967
  H         0.3493801219       11.4056496057        6.9740808174
  H         3.4783073511        3.2163868275       22.7612670052
  H         7.3203780443        4.0949358675        8.8038354343
  H         4.1647944450       10.5284591320       24.6019397638
  H         1.9637858830        3.5194895296        4.9333149723
  H         1.8611952584       11.0983926662       20.7114982977
  H         5.6873586740       10.8293776254       10.8742233603
  H         5.7910299477        3.7921116244       26.6628706149
  H         5.3451781464        6.1141612265        4.1810041521
  H         6.1418700141        8.4972364805       19.9723651283
  H         2.3138916834       13.4311545106       11.6087691098
  H         1.5178987931        1.1929191552       27.3995296585
  H         4.9594322761       10.4389883199        2.4412864019
  H         6.5222512509        4.1827371026       18.2337915107
  H         2.6951772545        3.1275501358       13.3506555271
  H         1.1319044229       11.4928648753       29.1433363929
  H         4.6834349403        8.2824805674        3.7218446003
  H         6.7987007002        6.3389853218       19.5211421677
  H         2.9681393146        0.9749603328       12.0591138489
  H         0.8598026724       13.6454741148       27.8533232755
  H         2.9227106097        4.4342064657        3.0694481523
  H         0.9050520717       10.1816410588       18.8631711110
  H         4.7327473947       11.7472022369       12.7243941287
  H         6.7490544819        2.8763216130       28.5178809550
  H         7.0458155635       10.8271370948        1.1162740257
  H         4.4359317997        3.7946722573       16.9084983438
  H         0.6089158568        3.5154199020       14.6756769281
  H         3.2182628420       11.1048388708       30.4683361218
  H         0.9151185768        6.9667120733        2.3339918482
  H         2.9099233641        7.6529345083       18.1295019258
  H         6.7394301854       14.2775321376       13.4588467675
  H         4.7409200284        0.3434657577       29.2525131231
  H         5.4010177906       13.8383097047        4.2500084995
  H         6.0808740674        0.7836284974       20.0436800520
  H         2.2518144307        6.5277992293       11.5417293261
  H         1.5762731342        8.0898366853       27.3375719963
  H         3.1443161925        0.1393753340        3.5745486569
  H         0.6825289239       14.4826944767       19.3675903518
  H         4.5114055061        7.4476323961       12.2180827131
  H         6.9696917446        7.1712274283       28.0125999855
  H         2.0585408088       11.7783974192        2.7759364735
  H         1.7694442196        2.8432485623       18.5692270967
  H         5.5977743541        4.4675700628       13.0157344018
  H         5.8841645922       10.1530161113       28.8082134170
  H         4.8044895149        1.9808798980        0.0187633481
  H         6.6786185655       12.6400497137       15.8121690254
  H         2.8514847136        9.2909739925       15.7717102972
  H         0.9763884668        5.3290967916       31.5648762360
  H         6.3996347110       12.0180468195        5.5737585494
  H         5.0843741499        2.6011805943       21.3652332252
  H         1.2538407148        4.7108945030       10.2097114425
  H         2.5758787330        9.9139324183       26.0064770474
  H         0.3742363478        4.9808714583        3.1398663652
  H         3.4530438919        9.6382263028       18.9338288845
  H         7.2813648394       12.2915968128       12.6530974709
  H         4.2004341866        2.3298782563       28.4461359607
  H         6.4809096639        4.8214045713        2.2482650732
  H         5.0015079135        9.8007968234       18.0415299634
  H         1.1724819687       12.1306702600       13.5426215967
  H         2.6552519898        2.4896228701       29.3359083382
  H         6.6755327226        4.0680052946        3.8767284944
  H         4.8047477607       10.5551140145       19.6637586415
  H         0.9790075949       11.3764054071       11.9183664432
  H         2.8476525345        3.2431600042       27.7083069583
  H         4.3319779161       -0.0612278409        1.3901486942
  H         7.1501517220       14.6814333119       17.1824479489
  H         3.3227801662        7.2497409918       14.4023834137
  H         0.5041343410        7.3714551812       30.1944011930
  H         0.3286744088        9.8056579516        5.1090996007
  H         3.4993396732        4.8147290453       20.9010925139
  H         7.3309518791        2.4957849315       10.6835544476
  H         4.1514766698       12.1263011642       26.4744734512
  H         1.0758426141        0.5599496785        4.7164384639
  H         2.7512995194       14.0610953107       20.5095999426
  H         6.5792262127        7.8684995377       11.0762293699
  H         4.9019474644        6.7490945082       26.8679021196
  H         0.2313090169        1.9054575544        3.9072705538
  H         3.5951643192       12.7145873800       19.6998008349
  H         7.4207635817        9.2162068997       11.8827885807
  H         4.0600483603        5.4048526454       27.6764880210
  H         0.3041629412        1.8325398536        5.7098816970
  H         3.5244045670       12.7908054603       21.5010209148
  H         7.3537574716        9.1406884957       10.0831350767
  H         4.1273755686        5.4827058292       25.8724917511
  H         3.1691379831       10.9245169174        4.6067681950
  H         0.6601906061        3.6974071428       20.3985394999
  H         4.4858238255        3.6088273317       11.1861782446
  H         6.9962784614       11.0127532619       26.9800778798
  H         2.3472504410        9.6800499532        3.5923147349
  H         1.4813777389        4.9388190848       19.3864921847
  H         5.3084263313        2.3738838293       12.1989444405
  H         6.1733312843       12.2468541449       27.9918710182
  H         2.7788388266        9.3158612856        5.2791066525
  H         1.0449751480        5.3125878594       21.0747033629
  H         4.8662833877        2.0048534811       10.5071819756
  H         6.6149354199       12.6142640851       26.2984643706
  C         6.9615342548       13.8210026753        2.7344980439
  C         4.5197102793        0.7983903357       18.5271671479
  C         0.6924721826        6.5112402251       13.0569103661
  C         3.1345288491        8.1101480051       28.8501627563
  C         0.5091163562       13.2256594945        2.3547154920
  C         3.3176758603        1.3943310143       18.1472891599
  C         7.1441572975        5.9175907118       13.4377671947
  C         4.3373329265        8.7041823251       29.2301805851
  C         2.1758142640        2.4472183574        4.7520279951
  C         1.6518076076       12.1725137366       20.5377455928
  C         5.4780475525        9.7562912040       11.0502435507
  C         6.0039106391        4.8645755840       26.8363624152
  C         6.4225818103        6.2274708487        3.9186173655
  C         5.0630431629        8.3910281584       19.7113928144
  C         1.2381049416       13.5408101387       11.8749223059
  C         2.5928755073        1.0808987218       27.6668623176
  C         0.4810565044       11.7745889912        4.2805632218
  C         3.3452652853        2.8463010743       20.0741922798
  C         7.1755178729        4.4626344057       11.5116131991
  C         4.3078076806       10.1569216512       27.3030758680
  C         5.7511224491        9.6751141033        2.4352444026
  C         5.7310222231        4.9470460411       18.2277087890
  C         1.9039990478        2.3632994185       13.3572637296
  C         1.9232652782       12.2569374708       29.1497594791
  C         5.5954061185        8.4762110861        3.1353702406
  C         5.8899984494        6.1453307212       18.9288265170
  C         2.0626075575        1.1652218727       12.6564735106
  C         1.7657541219       13.4554474247       28.4497307574
  C         3.2119953802        3.4428687781        2.6865033349
  C         0.6149291507       11.1733355404       18.4787464156
  C         4.4411285813       10.7561060856       13.1062708851
  C         7.0413788339        3.8670746895       28.8987171209
  C         6.9146794026        9.9014055081        1.6896113779
  C         4.5672591951        4.7203479336       17.4822157871
  C         0.7398540060        2.5896440917       14.1021105677
  C         3.0875150148       12.0300949539       29.8940998529
  C         2.9464209845        2.3021957526        3.4619208189
  C         0.8799316227       12.3172592076       19.2493578667
  C         4.7064409013        9.6126187190       12.3365991950
  C         6.7744511431        5.0076013580       28.1251095995
  C         0.1051050408        7.7091763787        2.3605809221
  C         3.7223044937        6.9126321520       18.1533627785
  C         7.5499108661        0.3987920685       13.4311573418
  C         3.9319556236       14.2208196009       29.2232677260
  C         6.3455804361       13.3858587313        3.9136736404
  C         5.1352215963        1.2332850206       19.7068040619
  C         1.3071642907        6.0750615892       11.8769347645
  C         2.5198737254        8.5454671822       27.6704823234
  C         3.3570253334        1.0465940112        2.9853063792
  C         0.4706151927       13.5752855135       18.7780299670
  C         4.2971772439        8.3549676803       12.8064997686
  C         7.1846452598        6.2635296978       28.5995137507
  C         6.5920091173        7.4903647356        3.1097089093
  C         4.8924622636        7.1300503545       18.8995143396
  C         1.0657269723        0.1804347720       12.6861773865
  C         2.7630656326       14.4399677066       28.4764686445
  C         0.2457399934        8.9158371647        1.6761852585
  C         3.5818984788        5.7062353034       17.4684387755
  C         7.4078080644        1.6051323458       14.1159695542
  C         4.0740915525       13.0145564880       29.9081133080
  C         3.8693302966        3.3074840162        1.4660854942
  C         7.6133166189       11.3112188227       17.2576772246
  C         3.7851195562       10.6211322492       14.3275747521
  C         0.0426930945        4.0005564901       30.1200763074
  C         1.1158957383       12.2269841927        3.1142132640
  C         2.7119011803        2.3936530925       18.9067763372
  C         6.5399214604        4.9177391026       12.6773397881
  C         4.9419609139        9.7035101143       28.4696041820
  C         4.2898450094        2.0634840992        0.9856883646
  C         7.1928484741       12.5562834618       16.7794273486
  C         3.3657142364        9.3751777195       14.8044980984
  C         0.4621676763        5.2460376040       30.5977850525
  C         6.9233035682       12.3642640250        4.6673360906
  C         4.5571664726        2.2548179944       20.4605482736
  C         0.7328386096        5.0526179863       11.1210059194
  C         3.0955289513        9.5671679163       26.9154640088
  C         6.9249237811        4.9528846525        3.2560416721
  C         4.5573028995        9.6655129613       19.0489042953
  C         0.7305253808       12.2652248650       12.5339852415
  C         3.0967983282        2.3566723167       28.3269777651
  C         4.0311831284        0.9275667835        1.7672658908
  C         7.4512967231       13.6929918619       17.5597845406
  C         3.6236436778        8.2380331824       14.0247044126
  C         0.2042538386        6.3825025332       29.8171258592
  C         1.0644194703       10.6367160605        5.0902539073
  C         2.7612051343        3.9858596710       20.8822337357
  C         6.5932767585        3.3248204034       10.6995408700
  C         4.8884169497       11.2969745916       26.4939251909
  C         0.8743347337        1.6503505563        4.7737924416
  C         2.9520692236       12.9705095445       20.5659925838
  C         6.7785987915        8.9591823238       11.0162403126
  C         4.7010969833        5.6587516299       26.8080111493
  C         2.4088512869       10.1158083478        4.6092158832
  C         1.4162085863        4.5102541324       20.4062476414
  C         5.2472793726        2.8009971348       11.1778522099
  C         6.2345215356       11.8198203261       26.9708975915
 Br         1.3004553302       13.6985282088        0.6597634022
 Br         2.5270573489        0.9213768263       16.4512193953
 Br         6.3533344121        6.3895045219       15.1338350277
 Br         5.1281048043        8.2321283556       30.9250914548
 Br         1.8731027221        9.2090584984        0.6581369899
 Br         1.9548134042        5.4119284061       16.4495622625
 Br         5.7808974967        1.8981691305       15.1341491424
 Br         5.7016456894       12.7216698870       30.9254455702
 Br         4.1978595500        4.9001127647        0.4067385340
 Br         7.2839043964        9.7197401058       16.1991110416
 Br         3.4581930368       12.2138382533       15.3833664434
 Br         0.3706819993        2.4086685110       31.1765950158
  N         7.1559665623        6.3937667481        5.2298064809
  N         4.3277239632        8.2126934836       21.0204982170
  N         0.5188088858       13.7193541744       10.5580545895
  N         3.3077589539        0.9060655458       26.3479368439
  N         3.0231074854        2.0178990795        5.9243841748
  N         0.8044543519       12.6115947236       21.7100503233
  N         4.6231595478        9.3252566695        9.8802516706
  N         6.8531979342        5.2875300992       25.6619947663
  N         1.2385153588       11.0675146558        6.5225765287
  N         2.5877408881        3.5561901193       22.3166907273
  N         6.4290533953        3.7578155861        9.2654510343
  N         5.0534871717       10.8703100367       25.0585567842
 Cl         2.6312938741        6.5198624503        4.5956964393
 Cl         1.2006917484        8.1511076870       20.4952473811
 Cl         5.0780067566       13.7892024885       11.1930011377
 Cl         6.3931959694        0.8012144919       27.1251411946
 Cl         5.0609147091        4.4139508322        6.4496762369
 Cl         6.3802853541       10.2909679469       22.2627995559
 Cl         2.6395382963       11.6874369691        9.3143720453
 Cl         1.1824069018        2.9108811871       25.1321460603
 Cl         1.4028114448        4.5798027909        7.4414954899
 Cl         2.5041487225       10.1527052781       23.2677699315
 Cl         6.4472856825       11.6576907695        8.3337523741
 Cl         5.1218591196        2.8627996437       24.1499910420
 Cl         4.2065123572        6.1344386917        9.7288483993
 Cl         7.2055823778        8.5608744002       25.7487237488
 Cl         3.4430815138       13.3724282453        6.0113558873
 Cl         0.3658064462        1.2150794593       21.8488539313
 Cl         5.3520906647        8.5419553553        6.7151165265
 Cl         6.3686859754        6.3806050586       22.6025332667
 Cl         2.6133807162        0.8636752335        8.9978338907
 Cl         1.2479886562       13.6940722640       24.8179002430
 Cl         1.4769165682        8.2315635672        7.8990692736
 Cl         2.2703537476        6.5159293550       23.7113000987
 Cl         6.1905374253        0.8502173510        7.8618513316
 Cl         5.2798696807       13.7189857092       23.6720711610
     280
 i =        5, E =     -1636.7111270345
 Eu         3.6078268266        6.5087027722        7.0579577214
 Eu         0.3697186299        8.6029461426       23.1774176618
 Eu         4.7658049224       13.4407661612        8.4813185255
 Eu         7.0469600826        0.8430903324       24.1374201965
  H         0.5466491899        6.5285355478        5.0907890997
  H         3.2768458349        8.0808339828       20.8849341370
  H         7.1434345541       13.8569475116       10.7061469980
  H         4.3428696423        0.7689405264       26.5032208932
  H         7.0260218131        5.5494521846        5.8323760754
  H         4.4505951415        9.0553229803       21.6164616655
  H         0.6564952092       12.8721775131        9.9615715856
  H         3.1706242177        1.7526120769       25.7528699919
  H         6.7745336321        7.1953967166        5.7651759429
  H         4.7364051391        7.4210248734       21.5645609778
  H         0.9453808547       14.5100773082       10.0102002485
  H         2.8929734825        0.1141794764       25.8057273957
  H         3.3210046653        1.0178735102        5.8501858276
  H         0.5095642729       13.6125648186       21.6330609959
  H         4.3317702488        8.3257915358        9.9718973364
  H         7.1573089290        6.2789759671       25.7532739424
  H         2.4867086308        2.0931256143        6.8192987743
  H         1.3405175705       12.5416551210       22.6055819413
  H         5.1730928935        9.4044707624        8.9996490928
  H         6.3178154972        5.2301213304       24.7672196928
  H         3.8510694952        2.6477581900        6.0442409675
  H        -0.0279141236       11.9943147620       21.8257035355
  H         3.7906448279        9.9552432727        9.7601001691
  H         7.6870665623        4.6622762926       25.5401592249
  H         6.5087345056       14.6027492853        2.1148464733
  H         4.9729520262        0.0175385584       17.9060936381
  H         1.1450879737        7.2917568674       13.6779792797
  H         2.6812369950        7.3290047004       29.4695262013
  H         1.9461227953       11.8387086744        6.5753621544
  H         1.8847996392        2.7915143589       22.3729639518
  H         5.7250215100        4.5175216920        9.2046127618
  H         5.7481906997       10.1058002235       25.0155822105
  H         1.5508994385       10.2546625689        7.1045903532
  H         2.2701741565        4.3769867020       22.8968852511
  H         6.1026224220        2.9461571037        8.6823643096
  H         5.3732326846       11.6848958531       24.4788542358
  H         0.3542707140       11.4026613197        6.9671683063
  H         3.4749769902        3.2198881815       22.7604926947
  H         7.3206913516        4.0934842490        8.8046174572
  H         4.1626220029       10.5333903167       24.6070023996
  H         1.9675663450        3.5140706519        4.9363026593
  H         1.8561737599       11.1065302078       20.7146478256
  H         5.6851497474       10.8210575963       10.8737216588
  H         5.7942538625        3.7961481499       26.6629140884
  H         5.3496610019        6.1156718726        4.1835676689
  H         6.1383185182        8.4936383959       19.9760352637
  H         2.3126550045       13.4328350268       11.6088676835
  H         1.5135091761        1.1912470818       27.4018515439
  H         4.9702589021       10.4290650328        2.4435434002
  H         6.5122243434        4.1919090235       18.2361542275
  H         2.6849601291        3.1188364861       13.3486928763
  H         1.1424106684       11.5024289668       29.1417628428
  H         4.6814444364        8.2864496288        3.7141439021
  H         6.7995548815        6.3353378856       19.5160099232
  H         2.9677954757        0.9805610866       12.0639624948
  H         0.8584367461       13.6417756098       27.8600762711
  H         2.9253468136        4.4319840862        3.0612089096
  H         0.9016760111       10.1845200170       18.8557100955
  H         4.7302478521       11.7421178764       12.7342007471
  H         6.7516389726        2.8788917812       28.5265555968
  H         7.0455643273       10.8263374243        1.1202517997
  H         4.4363530172        3.7963713426       16.9128910376
  H         0.6095033343        3.5145524574       14.6716883699
  H         3.2177005370       11.1051769137       30.4645276897
  H         0.9088498324        6.9734451702        2.3325739841
  H         2.9166286876        7.6461785093       18.1299570265
  H         6.7475892220       14.2838851371       13.4608209236
  H         4.7337253035        0.3363474781       29.2543526993
  H         5.4123297418       13.8328319727        4.2435656748
  H         6.0690475417        0.7881956364       20.0358685792
  H         2.2406963132        6.5239694146       11.5487787286
  H         1.5883422365        8.0936248776       27.3460301431
  H         3.1441941812        0.1393170304        3.5736801631
  H         0.6834800801       14.4809340535       19.3653377258
  H         4.5122605498        7.4499134027       12.2205807542
  H         6.9682851446        7.1704341283       28.0165948111
  H         2.0512521169       11.7835926393        2.7760709620
  H         1.7769705720        2.8388117289       18.5690606447
  H         5.6049526094        4.4722996031       13.0159128728
  H         5.8772722763       10.1484861805       28.8084612224
  H         4.8058986538        1.9829708803        0.0237761264
  H         6.6769943100       12.6377395105       15.8173320409
  H         2.8494622598        9.2931488908       15.7678850667
  H         0.9786592958        5.3271898742       31.5611615694
  H         6.3978431692       12.0184376235        5.5718384869
  H         5.0849365409        2.6011486578       21.3648998707
  H         1.2539150768        4.7136605046       10.2083861851
  H         2.5753893637        9.9126774509       26.0079405769
  H         0.3754771458        4.9783207358        3.1381693421
  H         3.4526108510        9.6393582082       18.9326335862
  H         7.2816470152       12.2903255100       12.6540654170
  H         4.2021538368        2.3316351278       28.4469402990
  H         6.4771245389        4.8246942758        2.2605600391
  H         5.0048826077        9.7963219878       18.0535152377
  H         1.1762938850       12.1351465617       13.5307207982
  H         2.6509199040        2.4851534093       29.3214002699
  H         6.6708971052        4.0742416330        3.8720561471
  H         4.8090572333       10.5491546981       19.6600220392
  H         0.9837221386       11.3827179191       11.9210728005
  H         2.8426394097        3.2363243678       27.7131564760
  H         4.3289315287       -0.0470182644        1.3960254373
  H         7.1528308880       14.6678598556       17.1877485611
  H         3.3249336799        7.2635362890       14.3978569378
  H         0.5014648549        7.3575240555       30.1894459599
  H         0.3348397397        9.8163808048        5.1131512989
  H         3.4933284185        4.8061067102       20.9050455955
  H         7.3257693164        2.5049805180       10.6792749519
  H         4.1560860572       12.1181488818       26.4727880608
  H         1.0761042429        0.5574948524        4.7150647928
  H         2.7504352402       14.0631146088       20.5070187053
  H         6.5781585020        7.8668322968       11.0780998065
  H         4.9021698200        6.7526584770       26.8700260435
  H         0.2439135963        1.9114437840        3.9183598537
  H         3.5848787992       12.7092743547       19.7082071257
  H         7.4107050584        9.2214220052       11.8752914573
  H         4.0717406349        5.3985239275       27.6654812960
  H         0.3037362700        1.8374702365        5.7040780583
  H         3.5230556644       12.7849725775       21.4961521778
  H         7.3503292401        9.1465718104       10.0879173243
  H         4.1280846265        5.4776747863       25.8783389988
  H         3.1657820001       10.9274723020        4.6075922183
  H         0.6628386579        3.6977113862       20.3996919186
  H         4.4895497777        3.6109990556       11.1845671660
  H         6.9919378291       11.0097181613       26.9800302576
  H         2.3385336265        9.6810582440        3.5978335411
  H         1.4892114755        4.9379040357       19.3918803142
  H         5.3182405537        2.3756574548       12.1908440475
  H         6.1635810369       12.2481651968       27.9831973771
  H         2.7724412426        9.3166126557        5.2761468281
  H         1.0511491807        5.3137919798       21.0740751174
  H         4.8715320377        2.0058925047       10.5067918927
  H         6.6088473831       12.6159467087       26.3013997102
  C         6.9623853505       13.8276643731        2.7340246338
  C         4.5195746846        0.7921740733       18.5262040551
  C         0.6917056415        6.5178717389       13.0569162048
  C         3.1359946659        8.1037012670       28.8506349142
  C         0.4999294734       13.2173511607        2.3545630669
  C         3.3266981915        1.4021108814       18.1479222427
  C         7.1533745044        5.9088559201       13.4368504217
  C         4.3286612328        8.7130623675       29.2301922115
  C         2.1730430571        2.4469060973        4.7504339505
  C         1.6568711486       12.1762931633       20.5354480163
  C         5.4829300667        9.7532506972       11.0537083943
  C         5.9991686711        4.8638732233       26.8387083635
  C         6.4213287325        6.2232741170        3.9196256067
  C         5.0648381458        8.3950908941       19.7127706227
  C         1.2428550248       13.5360342309       11.8747363983
  C         2.5830213531        1.0854620151       27.6656015226
  C         0.4805812973       11.7807943341        4.2846428402
  C         3.3450258039        2.8401346076       20.0792787692
  C         7.1752152475        4.4702958910       11.5053767319
  C         4.3072467349       10.1507419216       27.2989466349
  C         5.7534228266        9.6656688502        2.4311794405
  C         5.7296976150        4.9559316361       18.2241930920
  C         1.9024177044        2.3549973493       13.3612101865
  C         1.9253824090       12.2658897061       29.1535805431
  C         5.5948253054        8.4739867353        3.1413651495
  C         5.8906123922        6.1474052502       18.9351387270
  C         2.0623487058        1.1641025534       12.6501999490
  C         1.7670059260       13.4557508392       28.4404797885
  C         3.2163179106        3.4434775981        2.6925534152
  C         0.6114994882       11.1737129469       18.4840233252
  C         4.4368890472       10.7542474132       13.1020885355
  C         7.0440270145        3.8672651308       28.8934071106
  C         6.9127963970        9.9041416345        1.6856833275
  C         4.5701330325        4.7186236014       17.4782218427
  C         0.7426501925        2.5920837630       14.1067131325
  C         3.0847795206       12.0272953289       29.8990949286
  C         2.9540921945        2.2981405893        3.4615647570
  C         0.8748028986       12.3216559584       19.2486771065
  C         4.7023562095        9.6077193070       12.3383058533
  C         6.7814805509        5.0121375830       28.1253072748
  C         0.1070824466        7.7141887544        2.3648577773
  C         3.7205195576        6.9071063147       18.1581570319
  C         7.5497680069        0.4034900509       13.4281958511
  C         3.9310514835       14.2175031149       29.2227905334
  C         6.3511563618       13.3829802774        3.9097677461
  C         5.1291358769        1.2364307034       19.7031627807
  C         1.3025866196        6.0717894938       11.8808564471
  C         2.5260545410        8.5476496263       27.6744309106
  C         3.3561611135        1.0403765573        2.9880246403
  C         0.4695633267       13.5799349191       18.7800221038
  C         4.2971252384        8.3502091265       12.8060933314
  C         7.1841975615        6.2689208713       28.5986504916
  C         6.5956929637        7.4920515482        3.1137917184
  C         4.8894530300        7.1289319152       18.9030006141
  C         1.0628758403        0.1816199704       12.6818890484
  C         2.7663543489       14.4387870924       28.4715383996
  C         0.2408273699        8.9177145634        1.6774854207
  C         3.5865269664        5.7041135170       17.4698547193
  C         7.4126769817        1.6076232922       14.1142114382
  C         4.0690578600       13.0119315785       29.9060104767
  C         3.8651100169        3.3030121863        1.4678936715
  C         7.6157292449       11.3150342918       17.2599144501
  C         3.7871145125       10.6167718743       14.3263782169
  C         0.0400422204        4.0056822135       30.1173878041
  C         1.1156124756       12.2278145905        3.1176536421
  C         2.7113698965        2.3920247830       18.9111914017
  C         6.5401264951        4.9174918724       12.6733546723
  C         4.9417900337        9.7040715681       28.4665362289
  C         4.2901089172        2.0654766041        0.9829329400
  C         7.1938663751       12.5542884661       16.7758878836
  C         3.3656859638        9.3770454550       14.8091620043
  C         0.4627088078        5.2442390802       30.6022549787
  C         6.9167579171       12.3584630695        4.6691225916
  C         4.5640306973        2.2615510423       20.4626844776
  C         0.7405502242        5.0461179089       11.1193442564
  C         3.0887496203        9.5731564071       26.9144903619
  C         6.9329454420        4.9507388174        3.2564792137
  C         4.5500025617        9.6679617238       19.0497652294
  C         0.7239101641       12.2625103725       12.5330313023
  C         3.1052962241        2.3570835452       28.3247272836
  C         4.0232765488        0.9353986115        1.7654195987
  C         7.4582266670       13.6855712083       17.5572262985
  C         3.6299321434        8.2456752079       14.0279557536
  C         0.1971181468        6.3746435696       29.8203322964
  C         1.0742978617       10.6373640448        5.0841994021
  C         2.7521161509        3.9868834982       20.8774666615
  C         6.5858118128        3.3252495939       10.7023795092
  C         4.8958328228       11.2984651537       26.5008495938
  C         0.8757229113        1.6406863393        4.7801561808
  C         2.9540781687       12.9805097107       20.5703464289
  C         6.7802848432        8.9495752871       11.0129782824
  C         4.7019097131        5.6696582614       26.8025672407
  C         2.4197403688       10.1149171213        4.6066076878
  C         1.4058900814        4.5135282041       20.4048346013
  C         5.2376156531        2.7998290102       11.1770103676
  C         6.2451377236       11.8212910947       26.9710637605
 Br         1.2974172396       13.6992172254        0.6685416813
 Br         2.5300529747        0.9208508596       16.4605055966
 Br         6.3563453923        6.3901361921       15.1237421861
 Br         5.1253710194        8.2317549870       30.9153966766
 Br         1.8675899643        9.2098634360        0.6651895001
 Br         1.9600507046        5.4111870052       16.4561919517
 Br         5.7861865707        1.8988748404       15.1263935933
 Br         5.6962861444       12.7206858838       30.9174332526
 Br         4.1982295670        4.8938008699        0.4121034614
 Br         7.2829550825        9.7264286009       16.2034490284
 Br         3.4572566168       12.2076680255       15.3783307184
 Br         0.3711530126        2.4160674733       31.1709010406
  N         7.1631079614        6.3891120646        5.2275513744
  N         4.3222945736        8.2166576367       21.0187719281
  N         0.5249825407       13.7138706650       10.5565986305
  N         3.3083715535        0.9114052556       26.3503034426
  N         3.0203779035        2.0170276699        5.9260490780
  N         0.8091554518       12.6108591211       21.7116393280
  N         4.6260837495        9.3278511744        9.8817751997
  N         6.8503238349        5.2877644889       25.6626778230
  N         1.2397932367       11.0668564061        6.5174865130
  N         2.5910094230        3.5633093090       22.3160749904
  N         6.4336804044        3.7522616541        9.2634052348
  N         5.0473060628       10.8756314624       25.0617003825
 Cl         2.6462719550        6.5339896294        4.6173833349
 Cl         1.1899167904        8.1658198449       20.5272542340
 Cl         5.0912285134       13.7887211414       11.2414467540
 Cl         6.3920112944        0.8018737051       27.1182689531
 Cl         5.0420464865        4.4629111058        6.4625876832
 Cl         6.3397663995       10.3347588860       22.2524034728
 Cl         2.6510500839       11.6810099706        9.3230531712
 Cl         1.1605020321        2.8936833870       25.1308841054
 Cl         1.4170082659        4.6062554636        7.4577243752
 Cl         2.4868202182       10.1544920009       23.2852359393
 Cl         6.4333991529       11.6633887914        8.3464672418
 Cl         5.1334618704        2.8494275658       24.1482433486
 Cl         4.2171021488        6.1552493039        9.7058729754
 Cl         7.1872795284        8.5675213401       25.7644214943
 Cl         3.4573783294       13.3704093203        6.0568252795
 Cl         0.3626126766        1.2065606033       21.8688862816
 Cl         5.4286771961        8.6305586528        6.6984893178
 Cl         6.3569328865        6.3913082005       22.6065242249
 Cl         2.6261476395        0.8383016039        9.0092323541
 Cl         1.2467376239       13.6864762885       24.8232057377
 Cl         1.5218043324        8.2243642715        7.8904442230
 Cl         2.2236307102        6.5439957719       23.7169463128
 Cl         6.1821918070        0.8348815137        7.8670056949
 Cl         5.2778828593       13.7128396052       23.6679076976
     280
 i =        6, E =     -1636.6553851088
 Eu         3.3903609695        6.2661047336        6.9959367424
 Eu         0.6197186299        8.5233161830       23.0119611546
 Eu         4.9183456913       13.3637094961        8.3980151062
 Eu         6.8649947481        0.7858595562       24.0507282011
  H         0.5378014731        6.5244394102        5.0875190656
  H         3.2855429401        8.0796315531       20.8850203613
  H         7.1618243997       13.8589045538       10.7078286072
  H         4.3351759547        0.7705840122       26.5050561108
  H         7.0360015773        5.5536717138        5.8200708855
  H         4.4403938185        9.0523721759       21.6080637248
  H         0.6575201035       12.8739025956        9.9690814875
  H         3.1743739908        1.7503395871       25.7638897605
  H         6.7916840650        7.1959889653        5.7561513023
  H         4.7247328924        7.4266553101       21.5545833552
  H         0.9472357221       14.5017183472       10.0202131404
  H         2.9020014045        0.1233834979       25.8222136821
  H         3.3180649877        1.0290449677        5.8523525730
  H         0.5170004733       13.5963669841       21.6244237012
  H         4.3347585958        8.3403886736        9.9757187026
  H         7.1580899918        6.2671573785       25.7580385990
  H         2.4879147023        2.0936717340        6.8133904667
  H         1.3415568798       12.5395433948       22.5985249843
  H         5.1705511930        9.4031279958        9.0069749137
  H         6.3190329597        5.2290927109       24.7785642162
  H         3.8393229030        2.6383175547        6.0351544101
  H        -0.0207897391       12.0067634752       21.8178214192
  H         3.7990688134        9.9476887516        9.7707624223
  H         7.6744266577        4.6675921926       25.5492088696
  H         6.5156458853       14.5962291617        2.1233750367
  H         4.9660224862        0.0238268932       17.9151258765
  H         1.1385866327        7.2855043590       13.6679839860
  H         2.6879347528        7.3355972865       29.4602326825
  H         1.9445471175       11.8274766188        6.5687784052
  H         1.8916302351        2.8121356959       22.3761473959
  H         5.7332466803        4.5061067551        9.2040863388
  H         5.7398709093       10.1170581132       25.0269949228
  H         1.5527789727       10.2606154930        7.0930270683
  H         2.2671958693        4.3725050868       22.8895730468
  H         6.1029129333        2.9516636193        8.6894352955
  H         5.3716599608       11.6773098314       24.4912280502
  H         0.3635903278       11.3972921086        6.9479303708
  H         3.4704847184        3.2261459477       22.7538714212
  H         7.3166987944        4.0898483432        8.8196618109
  H         4.1650658994       10.5401416587       24.6253973426
  H         1.9699463858        3.5034584016        4.9351494246
  H         1.8535521072       11.1185657671       20.7160539743
  H         5.6847495014       10.8106164937       10.8778069312
  H         5.7968049670        3.8039426888       26.6645249042
  H         5.3628260920        6.1187887651        4.1824567950
  H         6.1261273762        8.4911201221       19.9779977195
  H         2.3067287546       13.4336952492       11.6122781853
  H         1.5160962875        1.1895936180       27.4086451514
  H         4.9830114608       10.4129011840        2.4456810625
  H         6.5000217563        4.2072756297       18.2382411129
  H         2.6722125732        3.1037711910       13.3467783038
  H         1.1548039507       11.5178289424       29.1403095740
  H         4.6854284615        8.2934600281        3.7064401158
  H         6.7944375957        6.3291049546       19.5096771142
  H         2.9623688921        0.9873784290       12.0704491458
  H         0.8614330666       13.6369272649       27.8690991143
  H         2.9291223122        4.4225449902        3.0518359396
  H         0.8971394089       10.1952171705       18.8473672648
  H         4.7265694874       11.7307832585       12.7431755085
  H         6.7555241172        2.8875481342       28.5341561316
  H         7.0432016972       10.8185170006        1.1302869892
  H         4.4391504037        3.8045541479       16.9229712773
  H         0.6119424731        3.5079014658       14.6619575281
  H         3.2151937283       11.1118166092       30.4547638131
  H         0.8978070008        6.9835268472        2.3318540650
  H         2.9283316475        7.6362587350       18.1311354620
  H         6.7600630000       14.2934281142       13.4605637988
  H         4.7225200059        0.3263306285       29.2535742088
  H         5.4272210566       13.8261098396        4.2358678383
  H         6.0531518010        0.7936009261       20.0257896364
  H         2.2263466402        6.5187122154       11.5561055759
  H         1.6035446825        8.0995704647       27.3542231045
  H         3.1456760404        0.1435532374        3.5687159658
  H         0.6827261938       14.4751547284       19.3585207635
  H         4.5108585829        7.4561574990       12.2269843208
  H         6.9690817244        7.1654771331       28.0239361324
  H         2.0387341271       11.7908341678        2.7805760714
  H         1.7895886074        2.8319853491       18.5727749459
  H         5.6165524294        4.4788527813       13.0114341392
  H         5.8661659761       10.1421988575       28.8042895301
  H         4.8017135182        1.9849207783        0.0388424270
  H         6.6808675870       12.6355118870       15.8316819846
  H         2.8523836684        9.2951123093       15.7553115293
  H         0.9757545299        5.3254059761       31.5479352044
  H         6.3993449807       12.0180499877        5.5635256620
  H         5.0811480059        2.6011868880       21.3605695172
  H         1.2517916037        4.7176144509       10.2141644029
  H         2.5770110095        9.9096653289       26.0160515231
  H         0.3717744951        4.9778950797        3.1381668690
  H         3.4566683940        9.6382618646       18.9328392694
  H         7.2856779106       12.2920346178       12.6521926424
  H         4.1989274388        2.3292279288       28.4437528299
  H         6.4745871056        4.8320443831        2.2767754384
  H         5.0069219727        9.7870801730       18.0696649715
  H         1.1796698442       12.1439077711       13.5136500881
  H         2.6467382274        2.4763268695       29.3031598495
  H         6.6672989274        4.0868997471        3.8669956670
  H         4.8131652026       10.5355100338       19.6570504083
  H         0.9886155940       11.3971559743       11.9238913183
  H         2.8381827782        3.2222951797       27.7174819043
  H         4.3243408025       -0.0296248872        1.4030784063
  H         7.1569140723       14.6508283022       17.1940830705
  H         3.3283913242        7.2806774380       14.3918961569
  H         0.4972368587        7.3403159448       30.1830773946
  H         0.3417030772        9.8271850410        5.1158158783
  H         3.4862754431        4.7974999335       20.9066942703
  H         7.3186931657        2.5150372622       10.6770079714
  H         4.1628793337       12.1098925294       26.4750741141
  H         1.0780997959        0.5610512864        4.7158901947
  H         2.7489240036       14.0597502941       20.5056059490
  H         6.5760976325        7.8708279706       11.0775511739
  H         4.9045253104        6.7506089679       26.8698682951
  H         0.2638237139        1.9181710279        3.9307356501
  H         3.5674032531       12.7037286379       19.7191182186
  H         7.3943849911        9.2271854502       11.8651108674
  H         4.0897824987        5.3913701040       27.6524731795
  H         0.3118858539        1.8414558064        5.6966351046
  H         3.5141708120       12.7793501315       21.4887346460
  H         7.3390543391        9.1510855638       10.0961116034
  H         4.1378737825        5.4724017514       25.8873320551
  H         3.1603683384       10.9263169202        4.6084634694
  H         0.6671415734        3.7021111318       20.4013974327
  H         4.4960353433        3.6122907982       11.1814126469
  H         6.9841171953       11.0080000716       26.9784786799
  H         2.3266693792        9.6878125210        3.6094307239
  H         1.4996697198        4.9327211746       19.4036233711
  H         5.3318947805        2.3806250794       12.1741852339
  H         6.1508293105       12.2471352894       27.9674067106
  H         2.7630688035        9.3246000200        5.2732870935
  H         1.0609445383        5.3076928581       21.0718059472
  H         4.8811710196        2.0113286019       10.5093763612
  H         6.5967618575       12.6130792791       26.3079863605
  C         6.9627345055       13.8270250444        2.7338948260
  C         4.5193085075        0.7931012831       18.5260571961
  C         0.6916639665        6.5167208583       13.0565534220
  C         3.1370569734        8.1043981178       28.8505769023
  C         0.4933484441       13.2117767240        2.3524618789
  C         3.3329790716        1.4075830211       18.1465538308
  C         7.1606746404        5.9011965477       13.4368759688
  C         4.3221234711        8.7202750849       29.2313974268
  C         2.1698791833        2.4458915797        4.7493720631
  C         1.6624868267       12.1786850226       20.5338038538
  C         5.4873422479        9.7525318351       11.0552679990
  C         5.9945658050        4.8625404695       26.8395251167
  C         6.4237847908        6.2205152810        3.9195171406
  C         5.0635506974        8.3985513996       19.7136167111
  C         1.2474661106       13.5311810609       11.8739566080
  C         2.5760567097        1.0898268568       27.6654013346
  C         0.4810961237       11.7867816438        4.2874111405
  C         3.3445039785        2.8343709460       20.0829742696
  C         7.1744801227        4.4774859428       11.5003854939
  C         4.3067448918       10.1458343622       27.2974530831
  C         5.7559254079        9.6563800389        2.4287573910
  C         5.7279799365        4.9647092927       18.2222434783
  C         1.9001994102        2.3464817000       13.3635622500
  C         1.9279599430       12.2740048092       29.1551266719
  C         5.5929538073        8.4709159668        3.1458912556
  C         5.8915071310        6.1501333004       18.9404637657
  C         2.0622832961        1.1623471188       12.6438683464
  C         1.7674555088       13.4562032458       28.4315947244
  C         3.2211452700        3.4426974610        2.6989663230
  C         0.6078475744       11.1759574465       18.4898587068
  C         4.4336933749       10.7519503872       13.0976822079
  C         7.0466695229        3.8677862285       28.8871802380
  C         6.9108312073        9.9027409850        1.6828988964
  C         4.5730367039        4.7203652181       17.4752523377
  C         0.7454179517        2.5917188919       14.1103912271
  C         3.0820131632       12.0277463847       29.9027694451
  C         2.9591145797        2.2934028332        3.4591686258
  C         0.8708876857       12.3270009429       19.2471328728
  C         4.7005359730        9.6023594190       12.3419145352
  C         6.7851451370        5.0173385572       28.1279196334
  C         0.1092826862        7.7195335049        2.3691449177
  C         3.7187603667        6.9014560662       18.1626666990
  C         7.5500390492        0.4073339665       13.4260813148
  C         3.9306848253       14.2145846130       29.2216464266
  C         6.3557313822       13.3803827344        3.9081261727
  C         5.1240744957        1.2403917976       19.7014239884
  C         1.2996858716        6.0686982927       11.8827321023
  C         2.5307992121        8.5496070346       27.6762905851
  C         3.3573196886        1.0347767226        2.9919576550
  C         0.4673986851       13.5842352697       18.7826010046
  C         4.2962549919        8.3457097553       12.8051250879
  C         7.1849381554        6.2740220710       28.5968467636
  C         6.5985820084        7.4950439198        3.1150725961
  C         4.8862105454        7.1265717394       18.9054488824
  C         1.0598064907        0.1835442923       12.6778694354
  C         2.7685134328       14.4367990344       28.4690821409
  C         0.2393083797        8.9186904328        1.6781343235
  C         3.5883029340        5.7027991891       17.4707161059
  C         7.4162181638        1.6084689188       14.1134385052
  C         4.0651857870       13.0115857679       29.9054001302
  C         3.8627018319        3.3007977339        1.4693960827
  C         7.6172474624       11.3175467947       17.2618529094
  C         3.7881782094       10.6126560714       14.3247855012
  C         0.0379535847        4.0098569942       30.1144654920
  C         1.1144907783       12.2296523131        3.1210459626
  C         2.7114688613        2.3895197612       18.9159322586
  C         6.5402932448        4.9176268322       12.6687053974
  C         4.9416674585        9.7042318418       28.4636616454
  C         4.2848381518        2.0673639564        0.9840051723
  C         7.1990506339       12.5525029380       16.7759775202
  C         3.3695290874        9.3782884851       14.8107739099
  C         0.4588105409        5.2427478644       30.6030642571
  C         6.9135389232       12.3554147795        4.6729717717
  C         4.5684780205        2.2665240050       20.4674372044
  C         0.7445846047        5.0432308980       11.1155943187
  C         3.0853288861        9.5763647387       26.9118734322
  C         6.9415133729        4.9481804976        3.2558951711
  C         4.5416341495        9.6707650825       19.0496818132
  C         0.7157395188       12.2603671462       12.5328741959
  C         3.1140779800        2.3583559677       28.3241273413
  C         4.0181214780        0.9413210238        1.7654330956
  C         7.4622962081       13.6798128548       17.5563900385
  C         3.6337725904        8.2515715439       14.0297149390
  C         0.1923507791        6.3686104844       29.8218783957
  C         1.0798606400       10.6355646509        5.0790201506
  C         2.7477112239        3.9898344872       20.8743826172
  C         6.5812576480        3.3239028120       10.7047014806
  C         4.8997989254       11.3017168409       26.5072222401
  C         0.8772336447        1.6311166632        4.7861058847
  C         2.9549338279       12.9906278827       20.5747397176
  C         6.7800415165        8.9403279060       11.0106629386
  C         4.7039022605        5.6806562210       26.7984135737
  C         2.4293920249       10.1166520248        4.6056865630
  C         1.3974060978        4.5132757090       20.4045032015
  C         5.2278930703        2.8026032101       11.1739271480
  C         6.2549037154       11.8191717587       26.9705177486
 Br         1.2941786068       13.6995632472        0.6751548655
 Br         2.5331454937        0.9210714083       16.4678605905
 Br         6.3602338743        6.3901676331       15.1150311100
 Br         5.1220614081        8.2319052876       30.9076247739
 Br         1.8623323637        9.2089766886        0.6707456727
 Br         1.9653798615        5.4119819767       16.4618460459
 Br         5.7922200474        1.8982235031       15.1200520844
 Br         5.6901232206       12.7212802115       30.9108965405
 Br         4.1981914813        4.8875814246        0.4171746364
 Br         7.2823580026        9.7336811536       16.2077922901
 Br         3.4566956174       12.1998457128       15.3742884887
 Br         0.3708538476        2.4240992396       31.1662633802
  N         7.1662292239        6.3893427027        5.2279198908
  N         4.3194204215        8.2197283540       21.0194224307
  N         0.5303463555       13.7098290028       10.5548987502
  N         3.3109080321        0.9164454679       26.3529858869
  N         3.0154770076        2.0165805801        5.9299002664
  N         0.8151301787       12.6078456317       21.7140313727
  N         4.6305254654        9.3299716095        9.8820019497
  N         6.8474328785        5.2894962463       25.6630182942
  N         1.2432649697       11.0649716692        6.5126309229
  N         2.5949184277        3.5699823928       22.3164037737
  N         6.4347832939        3.7489450124        9.2617323307
  N         5.0447949064       10.8775709022       25.0661438941
 Cl         2.6523476857        6.5447259418        4.6128099924
 Cl         1.1838237133        8.1805224022       20.5395333449
 Cl         5.1020608321       13.7854139816       11.2585176067
 Cl         6.3958784353        0.8014391334       27.0721135840
 Cl         5.0371312303        4.4789749623        6.4707661391
 Cl         6.3079695603       10.3738824932       22.2428817865
 Cl         2.6714966823       11.6816543178        9.3252453837
 Cl         1.1395453635        2.8706841437       25.1176048707
 Cl         1.4266429803        4.6203026923        7.4658386410
 Cl         2.4807522175       10.1713164737       23.2949403170
 Cl         6.4602438037       11.6295367097        8.3581569676
 Cl         5.1475845676        2.8285792170       24.1393818964
 Cl         4.2246420814        6.1640543868        9.6763253459
 Cl         7.1846568535        8.5736773779       25.7314399823
 Cl         3.4810403792       13.3719596155        6.1016238188
 Cl         0.3767474770        1.2065944058       21.8374040788
 Cl         5.4261281358        8.6280936806        6.6991322957
 Cl         6.3531227563        6.4152575636       22.6086769909
 Cl         2.6404471817        0.8201756813        9.0145259128
 Cl         1.2482414483       13.6715472246       24.8164309866
 Cl         1.5719338354        8.2081425491        7.8785780617
 Cl         2.1890249037        6.5619126034       23.7204535367
 Cl         6.1901246355        0.8404358194        7.8640529769
 Cl         5.2599468328       13.6951431568       23.6536355565
     280
 i =        7, E =     -1636.6899964031
 Eu         3.2743723115        6.1196293320        6.9146287105
 Eu         0.7056569222        8.5175711613       22.8558737207
 Eu         4.8507084729       13.4337468022        8.5984954858
 Eu         7.0042335548        0.8782804114       24.2063486762
  H         0.5299333046        6.5239669442        5.0789011133
  H         3.2961340649        8.0782307680       20.8770706157
  H         7.1704967180       13.8593851674       10.7173124770
  H         4.3355575360        0.7754603112       26.5131596279
  H         7.0426304945        5.5613111616        5.8156237739
  H         4.4429442111        9.0542730914       21.6081003527
  H         0.6697158868       12.8747153155        9.9747665117
  H         3.1716741569        1.7498825875       25.7694961106
  H         6.7923126373        7.2051980719        5.7617432012
  H         4.7260397350        7.4297765483       21.5569695051
  H         0.9626164617       14.4956174759       10.0204058337
  H         2.9031988317        0.1282502990       25.8280030609
  H         3.3158457894        1.0327660758        5.8599170567
  H         0.5258832824       13.5877370445       21.6177346504
  H         4.3346942830        8.3435813796        9.9664100722
  H         7.1565246292        6.2681629839       25.7569659348
  H         2.4918217249        2.0830750131        6.8223595708
  H         1.3406486323       12.5410817325       22.6003064116
  H         5.1620227343        9.3885035238        9.0012123818
  H         6.3219409787        5.2319626493       24.7833454228
  H         3.8367296709        2.6283251786        6.0310153532
  H        -0.0214567183       12.0064623182       21.8156482173
  H         3.8017817832        9.9463236329        9.7753889388
  H         7.6690382452        4.6619485239       25.5531132454
  H         6.5211402504       14.5904046172        2.1324983122
  H         4.9602750423        0.0303744944       17.9254504247
  H         1.1331413235        7.2800555005       13.6563795555
  H         2.6938707383        7.3410136026       29.4501481145
  H         1.9480136954       11.8225948973        6.5759314175
  H         1.8913904665        2.8212021610       22.3926647184
  H         5.7322078938        4.5105283903        9.2016846252
  H         5.7446287041       10.1121833660       25.0260749668
  H         1.5590472605       10.2583593360        7.0887257564
  H         2.2629370060        4.3672335215       22.8902785338
  H         6.1028526313        2.9532079717        8.6945959774
  H         5.3750515538       11.6636837792       24.4974770974
  H         0.3741213464       11.3924505476        6.9316184183
  H         3.4677713620        3.2318101868       22.7538510360
  H         7.3107696805        4.0867734961        8.8364277943
  H         4.1699073278       10.5442104478       24.6418422092
  H         1.9677524948        3.4965567245        4.9298593668
  H         1.8580299310       11.1240450817       20.7153610911
  H         5.6875769212       10.8082435699       10.8863615392
  H         5.7973454132        3.8083904704       26.6657671275
  H         5.3780537855        6.1216226579        4.1831045991
  H         6.1091716032        8.4941379713       19.9843692302
  H         2.3007500889       13.4313488570       11.6131475270
  H         1.5265532605        1.1905383099       27.4106201419
  H         4.9812164216       10.4080161426        2.4459620916
  H         6.5016789348        4.2115419988       18.2383027319
  H         2.6734327490        3.0996219807       13.3463437943
  H         1.1525217547       11.5212150219       29.1399993894
  H         4.6901742414        8.2977288561        3.7057476962
  H         6.7891151348        6.3255825275       19.5080867088
  H         2.9584774560        0.9892957748       12.0713124351
  H         0.8635306692       13.6357228867       27.8724018438
  H         2.9310586755        4.4153939262        3.0490211448
  H         0.8948458105       10.2044801501       18.8450271876
  H         4.7245111170       11.7242594730       12.7430536962
  H         6.7581033812        2.8928462276       28.5327180624
  H         7.0393495950       10.8103121855        1.1366646445
  H         4.4438343382        3.8121228757       16.9287767158
  H         0.6152217817        3.5017659815       14.6558184876
  H         3.2116802735       11.1187574853       30.4483447855
  H         0.8934895836        6.9886048094        2.3319329482
  H         2.9334148110        7.6318631577       18.1321458932
  H         6.7646144398       14.2974713311       13.4576331838
  H         4.7186733482        0.3224286473       29.2499831222
  H         5.4257540831       13.8257556719        4.2348331154
  H         6.0532771442        0.7931611975       20.0225180419
  H         2.2285551892        6.5188138536       11.5544356984
  H         1.6017253313        8.1012755766       27.3527962936
  H         3.1466025669        0.1479997639        3.5621536834
  H         0.6821930465       14.4702139878       19.3506650804
  H         4.5092226680        7.4610436350       12.2340519463
  H         6.9704224503        7.1611125125       28.0301344997
  H         2.0317620313       11.7937334942        2.7842728453
  H         1.7959868812        2.8285944720       18.5756344490
  H         5.6220535799        4.4809411252       13.0068129508
  H         5.8614084092       10.1401621461       28.8005155164
  H         4.7967204823        1.9853639101        0.0513582783
  H         6.6853929607       12.6345268417       15.8422230091
  H         2.8556446177        9.2957630366       15.7457019353
  H         0.9719970917        5.3245940685       31.5365933103
  H         6.3999640356       12.0127609730        5.5509268033
  H         5.0780051835        2.6037314462       21.3536475492
  H         1.2525865147        4.7201177757       10.2249537162
  H         2.5756080376        9.9078096012       26.0274676053
  H         0.3655351109        4.9760062904        3.1372998384
  H         3.4630383528        9.6386663439       18.9318177464
  H         7.2919562514       12.2940696267       12.6489132805
  H         4.1911452996        2.3252087314       28.4386721566
  H         6.4744980833        4.8357965062        2.2798992999
  H         5.0066870794        9.7810922988       18.0723847041
  H         1.1816850994       12.1482338681       13.5090567880
  H         2.6442376315        2.4722077660       29.3011715344
  H         6.6690713381        4.0904225731        3.8658674939
  H         4.8134139186       10.5293107565       19.6598396332
  H         0.9896770348       11.4033920642       11.9228671908
  H         2.8381212428        3.2173902375       27.7157601122
  H         4.3226401976       -0.0298527926        1.4019131739
  H         7.1583120910       14.6502213540       17.1922569920
  H         3.3289151561        7.2802636517       14.3933125746
  H         0.4956443580        7.3404352095       30.1840777481
  H         0.3403129201        9.8240733334        5.1145283671
  H         3.4881280588        4.8024627968       20.9016791428
  H         7.3186302486        2.5123750692       10.6796714928
  H         4.1620414508       12.1154455089       26.4849757220
  H         1.0766419747        0.5676400850        4.7194323537
  H         2.7519413492       14.0540993732       20.5065078209
  H         6.5782959174        7.8770096736       11.0741965249
  H         4.9045160180        6.7449582808       26.8666552393
  H         0.2710382466        1.9197285846        3.9299315726
  H         3.5624180926       12.7033398450       19.7197821302
  H         7.3904314601        9.2279318728       11.8645408880
  H         4.0944669273        5.3893763175       27.6517441893
  H         0.3194849855        1.8373433143        5.6965627583
  H         3.5072443125       12.7803681554       21.4856869581
  H         7.3314943354        9.1466764679       10.0993607929
  H         4.1468440534        5.4735795400       25.8906441477
  H         3.1612731732       10.9186997106        4.6057834828
  H         0.6652058987        3.7115977968       20.4010939990
  H         4.4971702556        3.6103437118       11.1797270490
  H         6.9811487117       11.0113998594       26.9772863845
  H         2.3245176785        9.6944970584        3.6128364830
  H         1.5014643027        4.9291634886       19.4089135243
  H         5.3368035233        2.3831300167       12.1630938586
  H         6.1478902811       12.2485787296       27.9606245867
  H         2.7627988216        9.3335041416        5.2732101365
  H         1.0619595969        5.2999395803       21.0686389729
  H         4.8825471925        2.0146023733       10.5133695649
  H         6.5924868185       12.6094616781       26.3157905212
  C         6.9601463775       13.8154068784        2.7334740343
  C         4.5202225062        0.8047996088       18.5268403754
  C         0.6951402016        6.5033368554       13.0564832326
  C         3.1351786445        8.1159566093       28.8506075260
  C         0.4989714256       13.2198081807        2.3496123648
  C         3.3266249281        1.4006537398       18.1439290741
  C         7.1565568235        5.9056835129       13.4371002094
  C         4.3271014206        8.7147159805       29.2332556682
  C         2.1712861359        2.4429048691        4.7545358253
  C         1.6613616309       12.1783952052       20.5392178820
  C         5.4848262469        9.7538736478       11.0497869312
  C         5.9969914704        4.8634420593       26.8337985245
  C         6.4338673662        6.2240840487        3.9212198920
  C         5.0532623376        8.3969125591       19.7160968830
  C         1.2456387040       13.5317296834       11.8706276634
  C         2.5831762352        1.0891105742       27.6649798593
  C         0.4829632362       11.7846740249        4.2853365632
  C         3.3435018223        2.8366944685       20.0815056936
  C         7.1739356012        4.4755342731       11.5013890634
  C         4.3061330277       10.1499226310       27.3027403229
  C         5.7533306923        9.6577392323        2.4296558867
  C         5.7305520994        4.9629043185       18.2235797613
  C         1.9023403101        2.3483635453       13.3619670871
  C         1.9257736426       12.2702458687       29.1519855525
  C         5.5912820354        8.4712396689        3.1441257175
  C         5.8916328649        6.1495075824       18.9392425656
  C         2.0629342946        1.1638192407       12.6430067220
  C         1.7654264987       13.4545953133       28.4324599487
  C         3.2235847077        3.4403633403        2.6994225759
  C         0.6053380282       11.1798535962       18.4902580852
  C         4.4338919523       10.7506539460       13.0992070559
  C         7.0482548347        3.8681479574       28.8865579689
  C         6.9107361288        9.8975667619        1.6868724495
  C         4.5736487873        4.7247647771       17.4788331514
  C         0.7459723117        2.5885401042       14.1071131195
  C         3.0813609950       12.0315518535       29.8987798584
  C         2.9518956166        2.2928927746        3.4570707701
  C         0.8777814789       12.3282186465       19.2461561978
  C         4.7083165455        9.6020345571       12.3457840409
  C         6.7759083862        5.0178421626       28.1321920751
  C         0.1101480841        7.7226220023        2.3717116361
  C         3.7181372640        6.8983930378       18.1660142460
  C         7.5509226248        0.4080409435       13.4243348225
  C         3.9310702085       14.2133458851       29.2182468401
  C         6.3519049903       13.3830322902        3.9117631047
  C         5.1276982299        1.2401225427       19.7044853499
  C         1.3055851774        6.0707717056       11.8790300567
  C         2.5264481587        8.5471604981       27.6730956621
  C         3.3617657670        1.0375451878        2.9933491452
  C         0.4649895300       13.5814466403       18.7818987911
  C         4.2941186692        8.3481165191       12.8067403946
  C         7.1869550876        6.2719029649       28.5972582683
  C         6.5953652014        7.4955780827        3.1085992950
  C         4.8878446933        7.1260962013       18.9026279909
  C         1.0631525683        0.1830299548       12.6807722836
  C         2.7638532023       14.4367219390       28.4745176867
  C         0.2447403211        8.9188859366        1.6770994851
  C         3.5841315007        5.7026420972       17.4701711442
  C         7.4155014495        1.6065724304       14.1152748119
  C         4.0656949444       13.0143305625       29.9080587371
  C         3.8663740432        3.3056696988        1.4683754974
  C         7.6150781929       11.3141835165       17.2602829703
  C         3.7858145182       10.6140933687       14.3259926790
  C         0.0393706782        4.0072351599       30.1151839668
  C         1.1107445050       12.2314561915        3.1191708408
  C         2.7146383012        2.3886347936       18.9150030966
  C         6.5424431154        4.9177652546       12.6687165809
  C         4.9393218938        9.7045465244       28.4666586394
  C         4.2779391913        2.0672883103        0.9903696294
  C         7.2032176342       12.5524855758       16.7814722964
  C         3.3730847358        9.3772862747       14.8065987632
  C         0.4540958129        5.2430621689       30.5973850948
  C         6.9190200434       12.3606116477        4.6733571062
  C         4.5646333165        2.2635090160       20.4690666722
  C         0.7392949132        5.0496461803       11.1147102307
  C         3.0901894295        9.5716813142       26.9123109538
  C         6.9403569805        4.9473216336        3.2550976474
  C         4.5427036323        9.6724867828       19.0488186643
  C         0.7173293004       12.2602963682       12.5331420191
  C         3.1108080289        2.3608763011       28.3263219338
  C         4.0217037159        0.9367138075        1.7666856051
  C         7.4581322902       13.6835740483       17.5570086053
  C         3.6301903383        8.2468826657       14.0303204488
  C         0.1955009614        6.3730162632       29.8215403511
  C         1.0732916968       10.6304881937        5.0815467691
  C         2.7570001465        3.9948859777       20.8801678460
  C         6.5875117405        3.3203074315       10.7006150718
  C         4.8914091508       11.3070601225       26.5061022848
  C         0.8763494888        1.6328167667        4.7855173131
  C         2.9543559086       12.9892282796       20.5730954735
  C         6.7786658800        8.9424105849       11.0135546527
  C         4.7049232951        5.6796594399       26.8011508526
  C         2.4265062559       10.1192081153        4.6060290656
  C         1.4025950493        4.5096777491       20.4054606271
  C         5.2296830387        2.8077033213       11.1690422368
  C         6.2508553097       11.8152315127       26.9709592919
 Br         1.2959669572       13.7006371075        0.6701271038
 Br         2.5310006066        0.9209080911       16.4635591606
 Br         6.3596040032        6.3907421161       15.1179785874
 Br         5.1237397253        8.2310198674       30.9125521230
 Br         1.8659701813        9.2098804544        0.6708192567
 Br         1.9627192952        5.4108232364       16.4631619463
 Br         5.7906350650        1.8996209704       15.1194043127
 Br         5.6915762939       12.7202012574       30.9104020048
 Br         4.1991857033        4.8913540334        0.4174606404
 Br         7.2810443018        9.7308431422       16.2080782300
 Br         3.4555188309       12.2014282170       15.3762833806
 Br         0.3712509625        2.4213883629       31.1682575737
  N         7.1659357520        6.3976519723        5.2343353640
  N         4.3198556895        8.2207895772       21.0269902299
  N         0.5330919738       13.7115060590       10.5500638097
  N         3.3145170969        0.9169509627       26.3507589912
  N         3.0137173001        2.0153634544        5.9395024776
  N         0.8145697305       12.6045357061       21.7198580002
  N         4.6296981030        9.3283961523        9.8781647569
  N         6.8527673725        5.2920147205       25.6599622115
  N         1.2527184728       11.0623616935        6.5120400771
  N         2.5928102095        3.5707033091       22.3206402297
  N         6.4271046462        3.7520782091        9.2588509618
  N         5.0515656210       10.8700785704       25.0699511559
 Cl         2.6374680261        6.5520425482        4.5320509755
 Cl         1.1961919479        8.1834604546       20.4728040152
 Cl         5.1153474213       13.7732649380       11.2203488907
 Cl         6.4001322068        0.7994117012       26.9792005400
 Cl         5.0994756566        4.4048981973        6.4524847541
 Cl         6.3219114720       10.3749074770       22.2428818182
 Cl         2.7053950811       11.6940869777        9.3153757423
 Cl         1.1293842045        2.8579419500       25.0953249263
 Cl         1.4031125822        4.5908035721        7.4648371726
 Cl         2.5289758746       10.2348298655       23.3015100808
 Cl         6.6185688280       11.4591535120        8.3645757203
 Cl         5.1481676324        2.8126087916       24.1174193265
 Cl         4.2320007047        6.1506805274        9.6521997478
 Cl         7.1994782942        8.5756911533       25.6620979982
 Cl         3.5078246367       13.3751005384        6.1167883680
 Cl         0.4034261161        1.2125542543       21.7604198585
 Cl         5.3663386629        8.5496393036        6.7035169449
 Cl         6.3501988912        6.4332678632       22.5982973321
 Cl         2.6523146703        0.8141019965        9.0097683700
 Cl         1.2359638211       13.6637062381       24.7900791209
 Cl         1.6230577082        8.1774533945        7.8601366693
 Cl         2.1881271445        6.5548049669       23.7243796906
 Cl         6.2352073643        0.8830481948        7.8398257721
 Cl         5.1549388751       13.5994327683       23.6078609003
